*HEADING
** Cyclic loading of polyurea dogbone (40 x 5 x 1 mm)
** Material: RNO atomistic surrogate (user subroutine vumat_rno.for)
** Units: SI (m, kg, s, Pa, K). Initial temperature 300 K.
** Geometry/mesh/BC per Sohail, Liu & Ghosh (2026), Sec. 4.
*PART, NAME=DOGBONE
*NODE
1, 0.000000e+00, -2.500000e-03, 0.000000e+00
2, 5.000000e-04, -2.500000e-03, 0.000000e+00
3, 1.000000e-03, -2.500000e-03, 0.000000e+00
4, 0.000000e+00, -1.666667e-03, 0.000000e+00
5, 5.000000e-04, -1.666667e-03, 0.000000e+00
6, 1.000000e-03, -1.666667e-03, 0.000000e+00
7, 0.000000e+00, -8.333333e-04, 0.000000e+00
8, 5.000000e-04, -8.333333e-04, 0.000000e+00
9, 1.000000e-03, -8.333333e-04, 0.000000e+00
10, 0.000000e+00, 0.000000e+00, 0.000000e+00
11, 5.000000e-04, 0.000000e+00, 0.000000e+00
12, 1.000000e-03, 0.000000e+00, 0.000000e+00
13, 0.000000e+00, 8.333333e-04, 0.000000e+00
14, 5.000000e-04, 8.333333e-04, 0.000000e+00
15, 1.000000e-03, 8.333333e-04, 0.000000e+00
16, 0.000000e+00, 1.666667e-03, 0.000000e+00
17, 5.000000e-04, 1.666667e-03, 0.000000e+00
18, 1.000000e-03, 1.666667e-03, 0.000000e+00
19, 0.000000e+00, 2.500000e-03, 0.000000e+00
20, 5.000000e-04, 2.500000e-03, 0.000000e+00
21, 1.000000e-03, 2.500000e-03, 0.000000e+00
22, 0.000000e+00, -2.500000e-03, 7.142857e-04
23, 5.000000e-04, -2.500000e-03, 7.142857e-04
24, 1.000000e-03, -2.500000e-03, 7.142857e-04
25, 0.000000e+00, -1.666667e-03, 7.142857e-04
26, 5.000000e-04, -1.666667e-03, 7.142857e-04
27, 1.000000e-03, -1.666667e-03, 7.142857e-04
28, 0.000000e+00, -8.333333e-04, 7.142857e-04
29, 5.000000e-04, -8.333333e-04, 7.142857e-04
30, 1.000000e-03, -8.333333e-04, 7.142857e-04
31, 0.000000e+00, 0.000000e+00, 7.142857e-04
32, 5.000000e-04, 0.000000e+00, 7.142857e-04
33, 1.000000e-03, 0.000000e+00, 7.142857e-04
34, 0.000000e+00, 8.333333e-04, 7.142857e-04
35, 5.000000e-04, 8.333333e-04, 7.142857e-04
36, 1.000000e-03, 8.333333e-04, 7.142857e-04
37, 0.000000e+00, 1.666667e-03, 7.142857e-04
38, 5.000000e-04, 1.666667e-03, 7.142857e-04
39, 1.000000e-03, 1.666667e-03, 7.142857e-04
40, 0.000000e+00, 2.500000e-03, 7.142857e-04
41, 5.000000e-04, 2.500000e-03, 7.142857e-04
42, 1.000000e-03, 2.500000e-03, 7.142857e-04
43, 0.000000e+00, -2.500000e-03, 1.428571e-03
44, 5.000000e-04, -2.500000e-03, 1.428571e-03
45, 1.000000e-03, -2.500000e-03, 1.428571e-03
46, 0.000000e+00, -1.666667e-03, 1.428571e-03
47, 5.000000e-04, -1.666667e-03, 1.428571e-03
48, 1.000000e-03, -1.666667e-03, 1.428571e-03
49, 0.000000e+00, -8.333333e-04, 1.428571e-03
50, 5.000000e-04, -8.333333e-04, 1.428571e-03
51, 1.000000e-03, -8.333333e-04, 1.428571e-03
52, 0.000000e+00, 0.000000e+00, 1.428571e-03
53, 5.000000e-04, 0.000000e+00, 1.428571e-03
54, 1.000000e-03, 0.000000e+00, 1.428571e-03
55, 0.000000e+00, 8.333333e-04, 1.428571e-03
56, 5.000000e-04, 8.333333e-04, 1.428571e-03
57, 1.000000e-03, 8.333333e-04, 1.428571e-03
58, 0.000000e+00, 1.666667e-03, 1.428571e-03
59, 5.000000e-04, 1.666667e-03, 1.428571e-03
60, 1.000000e-03, 1.666667e-03, 1.428571e-03
61, 0.000000e+00, 2.500000e-03, 1.428571e-03
62, 5.000000e-04, 2.500000e-03, 1.428571e-03
63, 1.000000e-03, 2.500000e-03, 1.428571e-03
64, 0.000000e+00, -2.500000e-03, 2.142857e-03
65, 5.000000e-04, -2.500000e-03, 2.142857e-03
66, 1.000000e-03, -2.500000e-03, 2.142857e-03
67, 0.000000e+00, -1.666667e-03, 2.142857e-03
68, 5.000000e-04, -1.666667e-03, 2.142857e-03
69, 1.000000e-03, -1.666667e-03, 2.142857e-03
70, 0.000000e+00, -8.333333e-04, 2.142857e-03
71, 5.000000e-04, -8.333333e-04, 2.142857e-03
72, 1.000000e-03, -8.333333e-04, 2.142857e-03
73, 0.000000e+00, 0.000000e+00, 2.142857e-03
74, 5.000000e-04, 0.000000e+00, 2.142857e-03
75, 1.000000e-03, 0.000000e+00, 2.142857e-03
76, 0.000000e+00, 8.333333e-04, 2.142857e-03
77, 5.000000e-04, 8.333333e-04, 2.142857e-03
78, 1.000000e-03, 8.333333e-04, 2.142857e-03
79, 0.000000e+00, 1.666667e-03, 2.142857e-03
80, 5.000000e-04, 1.666667e-03, 2.142857e-03
81, 1.000000e-03, 1.666667e-03, 2.142857e-03
82, 0.000000e+00, 2.500000e-03, 2.142857e-03
83, 5.000000e-04, 2.500000e-03, 2.142857e-03
84, 1.000000e-03, 2.500000e-03, 2.142857e-03
85, 0.000000e+00, -2.500000e-03, 2.857143e-03
86, 5.000000e-04, -2.500000e-03, 2.857143e-03
87, 1.000000e-03, -2.500000e-03, 2.857143e-03
88, 0.000000e+00, -1.666667e-03, 2.857143e-03
89, 5.000000e-04, -1.666667e-03, 2.857143e-03
90, 1.000000e-03, -1.666667e-03, 2.857143e-03
91, 0.000000e+00, -8.333333e-04, 2.857143e-03
92, 5.000000e-04, -8.333333e-04, 2.857143e-03
93, 1.000000e-03, -8.333333e-04, 2.857143e-03
94, 0.000000e+00, 0.000000e+00, 2.857143e-03
95, 5.000000e-04, 0.000000e+00, 2.857143e-03
96, 1.000000e-03, 0.000000e+00, 2.857143e-03
97, 0.000000e+00, 8.333333e-04, 2.857143e-03
98, 5.000000e-04, 8.333333e-04, 2.857143e-03
99, 1.000000e-03, 8.333333e-04, 2.857143e-03
100, 0.000000e+00, 1.666667e-03, 2.857143e-03
101, 5.000000e-04, 1.666667e-03, 2.857143e-03
102, 1.000000e-03, 1.666667e-03, 2.857143e-03
103, 0.000000e+00, 2.500000e-03, 2.857143e-03
104, 5.000000e-04, 2.500000e-03, 2.857143e-03
105, 1.000000e-03, 2.500000e-03, 2.857143e-03
106, 0.000000e+00, -2.500000e-03, 3.571429e-03
107, 5.000000e-04, -2.500000e-03, 3.571429e-03
108, 1.000000e-03, -2.500000e-03, 3.571429e-03
109, 0.000000e+00, -1.666667e-03, 3.571429e-03
110, 5.000000e-04, -1.666667e-03, 3.571429e-03
111, 1.000000e-03, -1.666667e-03, 3.571429e-03
112, 0.000000e+00, -8.333333e-04, 3.571429e-03
113, 5.000000e-04, -8.333333e-04, 3.571429e-03
114, 1.000000e-03, -8.333333e-04, 3.571429e-03
115, 0.000000e+00, 0.000000e+00, 3.571429e-03
116, 5.000000e-04, 0.000000e+00, 3.571429e-03
117, 1.000000e-03, 0.000000e+00, 3.571429e-03
118, 0.000000e+00, 8.333333e-04, 3.571429e-03
119, 5.000000e-04, 8.333333e-04, 3.571429e-03
120, 1.000000e-03, 8.333333e-04, 3.571429e-03
121, 0.000000e+00, 1.666667e-03, 3.571429e-03
122, 5.000000e-04, 1.666667e-03, 3.571429e-03
123, 1.000000e-03, 1.666667e-03, 3.571429e-03
124, 0.000000e+00, 2.500000e-03, 3.571429e-03
125, 5.000000e-04, 2.500000e-03, 3.571429e-03
126, 1.000000e-03, 2.500000e-03, 3.571429e-03
127, 0.000000e+00, -2.500000e-03, 4.285714e-03
128, 5.000000e-04, -2.500000e-03, 4.285714e-03
129, 1.000000e-03, -2.500000e-03, 4.285714e-03
130, 0.000000e+00, -1.666667e-03, 4.285714e-03
131, 5.000000e-04, -1.666667e-03, 4.285714e-03
132, 1.000000e-03, -1.666667e-03, 4.285714e-03
133, 0.000000e+00, -8.333333e-04, 4.285714e-03
134, 5.000000e-04, -8.333333e-04, 4.285714e-03
135, 1.000000e-03, -8.333333e-04, 4.285714e-03
136, 0.000000e+00, 0.000000e+00, 4.285714e-03
137, 5.000000e-04, 0.000000e+00, 4.285714e-03
138, 1.000000e-03, 0.000000e+00, 4.285714e-03
139, 0.000000e+00, 8.333333e-04, 4.285714e-03
140, 5.000000e-04, 8.333333e-04, 4.285714e-03
141, 1.000000e-03, 8.333333e-04, 4.285714e-03
142, 0.000000e+00, 1.666667e-03, 4.285714e-03
143, 5.000000e-04, 1.666667e-03, 4.285714e-03
144, 1.000000e-03, 1.666667e-03, 4.285714e-03
145, 0.000000e+00, 2.500000e-03, 4.285714e-03
146, 5.000000e-04, 2.500000e-03, 4.285714e-03
147, 1.000000e-03, 2.500000e-03, 4.285714e-03
148, 0.000000e+00, -2.500000e-03, 5.000000e-03
149, 5.000000e-04, -2.500000e-03, 5.000000e-03
150, 1.000000e-03, -2.500000e-03, 5.000000e-03
151, 0.000000e+00, -1.666667e-03, 5.000000e-03
152, 5.000000e-04, -1.666667e-03, 5.000000e-03
153, 1.000000e-03, -1.666667e-03, 5.000000e-03
154, 0.000000e+00, -8.333333e-04, 5.000000e-03
155, 5.000000e-04, -8.333333e-04, 5.000000e-03
156, 1.000000e-03, -8.333333e-04, 5.000000e-03
157, 0.000000e+00, 0.000000e+00, 5.000000e-03
158, 5.000000e-04, 0.000000e+00, 5.000000e-03
159, 1.000000e-03, 0.000000e+00, 5.000000e-03
160, 0.000000e+00, 8.333333e-04, 5.000000e-03
161, 5.000000e-04, 8.333333e-04, 5.000000e-03
162, 1.000000e-03, 8.333333e-04, 5.000000e-03
163, 0.000000e+00, 1.666667e-03, 5.000000e-03
164, 5.000000e-04, 1.666667e-03, 5.000000e-03
165, 1.000000e-03, 1.666667e-03, 5.000000e-03
166, 0.000000e+00, 2.500000e-03, 5.000000e-03
167, 5.000000e-04, 2.500000e-03, 5.000000e-03
168, 1.000000e-03, 2.500000e-03, 5.000000e-03
169, 0.000000e+00, -2.500000e-03, 5.714286e-03
170, 5.000000e-04, -2.500000e-03, 5.714286e-03
171, 1.000000e-03, -2.500000e-03, 5.714286e-03
172, 0.000000e+00, -1.666667e-03, 5.714286e-03
173, 5.000000e-04, -1.666667e-03, 5.714286e-03
174, 1.000000e-03, -1.666667e-03, 5.714286e-03
175, 0.000000e+00, -8.333333e-04, 5.714286e-03
176, 5.000000e-04, -8.333333e-04, 5.714286e-03
177, 1.000000e-03, -8.333333e-04, 5.714286e-03
178, 0.000000e+00, 0.000000e+00, 5.714286e-03
179, 5.000000e-04, 0.000000e+00, 5.714286e-03
180, 1.000000e-03, 0.000000e+00, 5.714286e-03
181, 0.000000e+00, 8.333333e-04, 5.714286e-03
182, 5.000000e-04, 8.333333e-04, 5.714286e-03
183, 1.000000e-03, 8.333333e-04, 5.714286e-03
184, 0.000000e+00, 1.666667e-03, 5.714286e-03
185, 5.000000e-04, 1.666667e-03, 5.714286e-03
186, 1.000000e-03, 1.666667e-03, 5.714286e-03
187, 0.000000e+00, 2.500000e-03, 5.714286e-03
188, 5.000000e-04, 2.500000e-03, 5.714286e-03
189, 1.000000e-03, 2.500000e-03, 5.714286e-03
190, 0.000000e+00, -2.500000e-03, 6.428571e-03
191, 5.000000e-04, -2.500000e-03, 6.428571e-03
192, 1.000000e-03, -2.500000e-03, 6.428571e-03
193, 0.000000e+00, -1.666667e-03, 6.428571e-03
194, 5.000000e-04, -1.666667e-03, 6.428571e-03
195, 1.000000e-03, -1.666667e-03, 6.428571e-03
196, 0.000000e+00, -8.333333e-04, 6.428571e-03
197, 5.000000e-04, -8.333333e-04, 6.428571e-03
198, 1.000000e-03, -8.333333e-04, 6.428571e-03
199, 0.000000e+00, 0.000000e+00, 6.428571e-03
200, 5.000000e-04, 0.000000e+00, 6.428571e-03
201, 1.000000e-03, 0.000000e+00, 6.428571e-03
202, 0.000000e+00, 8.333333e-04, 6.428571e-03
203, 5.000000e-04, 8.333333e-04, 6.428571e-03
204, 1.000000e-03, 8.333333e-04, 6.428571e-03
205, 0.000000e+00, 1.666667e-03, 6.428571e-03
206, 5.000000e-04, 1.666667e-03, 6.428571e-03
207, 1.000000e-03, 1.666667e-03, 6.428571e-03
208, 0.000000e+00, 2.500000e-03, 6.428571e-03
209, 5.000000e-04, 2.500000e-03, 6.428571e-03
210, 1.000000e-03, 2.500000e-03, 6.428571e-03
211, 0.000000e+00, -2.498994e-03, 7.142857e-03
212, 5.000000e-04, -2.498994e-03, 7.142857e-03
213, 1.000000e-03, -2.498994e-03, 7.142857e-03
214, 0.000000e+00, -1.665996e-03, 7.142857e-03
215, 5.000000e-04, -1.665996e-03, 7.142857e-03
216, 1.000000e-03, -1.665996e-03, 7.142857e-03
217, 0.000000e+00, -8.329979e-04, 7.142857e-03
218, 5.000000e-04, -8.329979e-04, 7.142857e-03
219, 1.000000e-03, -8.329979e-04, 7.142857e-03
220, 0.000000e+00, 0.000000e+00, 7.142857e-03
221, 5.000000e-04, 0.000000e+00, 7.142857e-03
222, 1.000000e-03, 0.000000e+00, 7.142857e-03
223, 0.000000e+00, 8.329979e-04, 7.142857e-03
224, 5.000000e-04, 8.329979e-04, 7.142857e-03
225, 1.000000e-03, 8.329979e-04, 7.142857e-03
226, 0.000000e+00, 1.665996e-03, 7.142857e-03
227, 5.000000e-04, 1.665996e-03, 7.142857e-03
228, 1.000000e-03, 1.665996e-03, 7.142857e-03
229, 0.000000e+00, 2.498994e-03, 7.142857e-03
230, 5.000000e-04, 2.498994e-03, 7.142857e-03
231, 1.000000e-03, 2.498994e-03, 7.142857e-03
232, 0.000000e+00, -2.464612e-03, 7.857143e-03
233, 5.000000e-04, -2.464612e-03, 7.857143e-03
234, 1.000000e-03, -2.464612e-03, 7.857143e-03
235, 0.000000e+00, -1.643075e-03, 7.857143e-03
236, 5.000000e-04, -1.643075e-03, 7.857143e-03
237, 1.000000e-03, -1.643075e-03, 7.857143e-03
238, 0.000000e+00, -8.215374e-04, 7.857143e-03
239, 5.000000e-04, -8.215374e-04, 7.857143e-03
240, 1.000000e-03, -8.215374e-04, 7.857143e-03
241, 0.000000e+00, 0.000000e+00, 7.857143e-03
242, 5.000000e-04, 0.000000e+00, 7.857143e-03
243, 1.000000e-03, 0.000000e+00, 7.857143e-03
244, 0.000000e+00, 8.215374e-04, 7.857143e-03
245, 5.000000e-04, 8.215374e-04, 7.857143e-03
246, 1.000000e-03, 8.215374e-04, 7.857143e-03
247, 0.000000e+00, 1.643075e-03, 7.857143e-03
248, 5.000000e-04, 1.643075e-03, 7.857143e-03
249, 1.000000e-03, 1.643075e-03, 7.857143e-03
250, 0.000000e+00, 2.464612e-03, 7.857143e-03
251, 5.000000e-04, 2.464612e-03, 7.857143e-03
252, 1.000000e-03, 2.464612e-03, 7.857143e-03
253, 0.000000e+00, -2.387724e-03, 8.571429e-03
254, 5.000000e-04, -2.387724e-03, 8.571429e-03
255, 1.000000e-03, -2.387724e-03, 8.571429e-03
256, 0.000000e+00, -1.591816e-03, 8.571429e-03
257, 5.000000e-04, -1.591816e-03, 8.571429e-03
258, 1.000000e-03, -1.591816e-03, 8.571429e-03
259, 0.000000e+00, -7.959081e-04, 8.571429e-03
260, 5.000000e-04, -7.959081e-04, 8.571429e-03
261, 1.000000e-03, -7.959081e-04, 8.571429e-03
262, 0.000000e+00, 0.000000e+00, 8.571429e-03
263, 5.000000e-04, 0.000000e+00, 8.571429e-03
264, 1.000000e-03, 0.000000e+00, 8.571429e-03
265, 0.000000e+00, 7.959081e-04, 8.571429e-03
266, 5.000000e-04, 7.959081e-04, 8.571429e-03
267, 1.000000e-03, 7.959081e-04, 8.571429e-03
268, 0.000000e+00, 1.591816e-03, 8.571429e-03
269, 5.000000e-04, 1.591816e-03, 8.571429e-03
270, 1.000000e-03, 1.591816e-03, 8.571429e-03
271, 0.000000e+00, 2.387724e-03, 8.571429e-03
272, 5.000000e-04, 2.387724e-03, 8.571429e-03
273, 1.000000e-03, 2.387724e-03, 8.571429e-03
274, 0.000000e+00, -2.283558e-03, 9.285714e-03
275, 5.000000e-04, -2.283558e-03, 9.285714e-03
276, 1.000000e-03, -2.283558e-03, 9.285714e-03
277, 0.000000e+00, -1.522372e-03, 9.285714e-03
278, 5.000000e-04, -1.522372e-03, 9.285714e-03
279, 1.000000e-03, -1.522372e-03, 9.285714e-03
280, 0.000000e+00, -7.611861e-04, 9.285714e-03
281, 5.000000e-04, -7.611861e-04, 9.285714e-03
282, 1.000000e-03, -7.611861e-04, 9.285714e-03
283, 0.000000e+00, 0.000000e+00, 9.285714e-03
284, 5.000000e-04, 0.000000e+00, 9.285714e-03
285, 1.000000e-03, 0.000000e+00, 9.285714e-03
286, 0.000000e+00, 7.611861e-04, 9.285714e-03
287, 5.000000e-04, 7.611861e-04, 9.285714e-03
288, 1.000000e-03, 7.611861e-04, 9.285714e-03
289, 0.000000e+00, 1.522372e-03, 9.285714e-03
290, 5.000000e-04, 1.522372e-03, 9.285714e-03
291, 1.000000e-03, 1.522372e-03, 9.285714e-03
292, 0.000000e+00, 2.283558e-03, 9.285714e-03
293, 5.000000e-04, 2.283558e-03, 9.285714e-03
294, 1.000000e-03, 2.283558e-03, 9.285714e-03
295, 0.000000e+00, -2.172746e-03, 1.000000e-02
296, 5.000000e-04, -2.172746e-03, 1.000000e-02
297, 1.000000e-03, -2.172746e-03, 1.000000e-02
298, 0.000000e+00, -1.448497e-03, 1.000000e-02
299, 5.000000e-04, -1.448497e-03, 1.000000e-02
300, 1.000000e-03, -1.448497e-03, 1.000000e-02
301, 0.000000e+00, -7.242486e-04, 1.000000e-02
302, 5.000000e-04, -7.242486e-04, 1.000000e-02
303, 1.000000e-03, -7.242486e-04, 1.000000e-02
304, 0.000000e+00, 0.000000e+00, 1.000000e-02
305, 5.000000e-04, 0.000000e+00, 1.000000e-02
306, 1.000000e-03, 0.000000e+00, 1.000000e-02
307, 0.000000e+00, 7.242486e-04, 1.000000e-02
308, 5.000000e-04, 7.242486e-04, 1.000000e-02
309, 1.000000e-03, 7.242486e-04, 1.000000e-02
310, 0.000000e+00, 1.448497e-03, 1.000000e-02
311, 5.000000e-04, 1.448497e-03, 1.000000e-02
312, 1.000000e-03, 1.448497e-03, 1.000000e-02
313, 0.000000e+00, 2.172746e-03, 1.000000e-02
314, 5.000000e-04, 2.172746e-03, 1.000000e-02
315, 1.000000e-03, 2.172746e-03, 1.000000e-02
316, 0.000000e+00, -2.077234e-03, 1.071429e-02
317, 5.000000e-04, -2.077234e-03, 1.071429e-02
318, 1.000000e-03, -2.077234e-03, 1.071429e-02
319, 0.000000e+00, -1.384823e-03, 1.071429e-02
320, 5.000000e-04, -1.384823e-03, 1.071429e-02
321, 1.000000e-03, -1.384823e-03, 1.071429e-02
322, 0.000000e+00, -6.924114e-04, 1.071429e-02
323, 5.000000e-04, -6.924114e-04, 1.071429e-02
324, 1.000000e-03, -6.924114e-04, 1.071429e-02
325, 0.000000e+00, 0.000000e+00, 1.071429e-02
326, 5.000000e-04, 0.000000e+00, 1.071429e-02
327, 1.000000e-03, 0.000000e+00, 1.071429e-02
328, 0.000000e+00, 6.924114e-04, 1.071429e-02
329, 5.000000e-04, 6.924114e-04, 1.071429e-02
330, 1.000000e-03, 6.924114e-04, 1.071429e-02
331, 0.000000e+00, 1.384823e-03, 1.071429e-02
332, 5.000000e-04, 1.384823e-03, 1.071429e-02
333, 1.000000e-03, 1.384823e-03, 1.071429e-02
334, 0.000000e+00, 2.077234e-03, 1.071429e-02
335, 5.000000e-04, 2.077234e-03, 1.071429e-02
336, 1.000000e-03, 2.077234e-03, 1.071429e-02
337, 0.000000e+00, -2.015941e-03, 1.142857e-02
338, 5.000000e-04, -2.015941e-03, 1.142857e-02
339, 1.000000e-03, -2.015941e-03, 1.142857e-02
340, 0.000000e+00, -1.343961e-03, 1.142857e-02
341, 5.000000e-04, -1.343961e-03, 1.142857e-02
342, 1.000000e-03, -1.343961e-03, 1.142857e-02
343, 0.000000e+00, -6.719804e-04, 1.142857e-02
344, 5.000000e-04, -6.719804e-04, 1.142857e-02
345, 1.000000e-03, -6.719804e-04, 1.142857e-02
346, 0.000000e+00, 0.000000e+00, 1.142857e-02
347, 5.000000e-04, 0.000000e+00, 1.142857e-02
348, 1.000000e-03, 0.000000e+00, 1.142857e-02
349, 0.000000e+00, 6.719804e-04, 1.142857e-02
350, 5.000000e-04, 6.719804e-04, 1.142857e-02
351, 1.000000e-03, 6.719804e-04, 1.142857e-02
352, 0.000000e+00, 1.343961e-03, 1.142857e-02
353, 5.000000e-04, 1.343961e-03, 1.142857e-02
354, 1.000000e-03, 1.343961e-03, 1.142857e-02
355, 0.000000e+00, 2.015941e-03, 1.142857e-02
356, 5.000000e-04, 2.015941e-03, 1.142857e-02
357, 1.000000e-03, 2.015941e-03, 1.142857e-02
358, 0.000000e+00, -2.000000e-03, 1.214286e-02
359, 5.000000e-04, -2.000000e-03, 1.214286e-02
360, 1.000000e-03, -2.000000e-03, 1.214286e-02
361, 0.000000e+00, -1.333333e-03, 1.214286e-02
362, 5.000000e-04, -1.333333e-03, 1.214286e-02
363, 1.000000e-03, -1.333333e-03, 1.214286e-02
364, 0.000000e+00, -6.666667e-04, 1.214286e-02
365, 5.000000e-04, -6.666667e-04, 1.214286e-02
366, 1.000000e-03, -6.666667e-04, 1.214286e-02
367, 0.000000e+00, 0.000000e+00, 1.214286e-02
368, 5.000000e-04, 0.000000e+00, 1.214286e-02
369, 1.000000e-03, 0.000000e+00, 1.214286e-02
370, 0.000000e+00, 6.666667e-04, 1.214286e-02
371, 5.000000e-04, 6.666667e-04, 1.214286e-02
372, 1.000000e-03, 6.666667e-04, 1.214286e-02
373, 0.000000e+00, 1.333333e-03, 1.214286e-02
374, 5.000000e-04, 1.333333e-03, 1.214286e-02
375, 1.000000e-03, 1.333333e-03, 1.214286e-02
376, 0.000000e+00, 2.000000e-03, 1.214286e-02
377, 5.000000e-04, 2.000000e-03, 1.214286e-02
378, 1.000000e-03, 2.000000e-03, 1.214286e-02
379, 0.000000e+00, -2.000000e-03, 1.285714e-02
380, 5.000000e-04, -2.000000e-03, 1.285714e-02
381, 1.000000e-03, -2.000000e-03, 1.285714e-02
382, 0.000000e+00, -1.333333e-03, 1.285714e-02
383, 5.000000e-04, -1.333333e-03, 1.285714e-02
384, 1.000000e-03, -1.333333e-03, 1.285714e-02
385, 0.000000e+00, -6.666667e-04, 1.285714e-02
386, 5.000000e-04, -6.666667e-04, 1.285714e-02
387, 1.000000e-03, -6.666667e-04, 1.285714e-02
388, 0.000000e+00, 0.000000e+00, 1.285714e-02
389, 5.000000e-04, 0.000000e+00, 1.285714e-02
390, 1.000000e-03, 0.000000e+00, 1.285714e-02
391, 0.000000e+00, 6.666667e-04, 1.285714e-02
392, 5.000000e-04, 6.666667e-04, 1.285714e-02
393, 1.000000e-03, 6.666667e-04, 1.285714e-02
394, 0.000000e+00, 1.333333e-03, 1.285714e-02
395, 5.000000e-04, 1.333333e-03, 1.285714e-02
396, 1.000000e-03, 1.333333e-03, 1.285714e-02
397, 0.000000e+00, 2.000000e-03, 1.285714e-02
398, 5.000000e-04, 2.000000e-03, 1.285714e-02
399, 1.000000e-03, 2.000000e-03, 1.285714e-02
400, 0.000000e+00, -2.000000e-03, 1.357143e-02
401, 5.000000e-04, -2.000000e-03, 1.357143e-02
402, 1.000000e-03, -2.000000e-03, 1.357143e-02
403, 0.000000e+00, -1.333333e-03, 1.357143e-02
404, 5.000000e-04, -1.333333e-03, 1.357143e-02
405, 1.000000e-03, -1.333333e-03, 1.357143e-02
406, 0.000000e+00, -6.666667e-04, 1.357143e-02
407, 5.000000e-04, -6.666667e-04, 1.357143e-02
408, 1.000000e-03, -6.666667e-04, 1.357143e-02
409, 0.000000e+00, 0.000000e+00, 1.357143e-02
410, 5.000000e-04, 0.000000e+00, 1.357143e-02
411, 1.000000e-03, 0.000000e+00, 1.357143e-02
412, 0.000000e+00, 6.666667e-04, 1.357143e-02
413, 5.000000e-04, 6.666667e-04, 1.357143e-02
414, 1.000000e-03, 6.666667e-04, 1.357143e-02
415, 0.000000e+00, 1.333333e-03, 1.357143e-02
416, 5.000000e-04, 1.333333e-03, 1.357143e-02
417, 1.000000e-03, 1.333333e-03, 1.357143e-02
418, 0.000000e+00, 2.000000e-03, 1.357143e-02
419, 5.000000e-04, 2.000000e-03, 1.357143e-02
420, 1.000000e-03, 2.000000e-03, 1.357143e-02
421, 0.000000e+00, -2.000000e-03, 1.428571e-02
422, 5.000000e-04, -2.000000e-03, 1.428571e-02
423, 1.000000e-03, -2.000000e-03, 1.428571e-02
424, 0.000000e+00, -1.333333e-03, 1.428571e-02
425, 5.000000e-04, -1.333333e-03, 1.428571e-02
426, 1.000000e-03, -1.333333e-03, 1.428571e-02
427, 0.000000e+00, -6.666667e-04, 1.428571e-02
428, 5.000000e-04, -6.666667e-04, 1.428571e-02
429, 1.000000e-03, -6.666667e-04, 1.428571e-02
430, 0.000000e+00, 0.000000e+00, 1.428571e-02
431, 5.000000e-04, 0.000000e+00, 1.428571e-02
432, 1.000000e-03, 0.000000e+00, 1.428571e-02
433, 0.000000e+00, 6.666667e-04, 1.428571e-02
434, 5.000000e-04, 6.666667e-04, 1.428571e-02
435, 1.000000e-03, 6.666667e-04, 1.428571e-02
436, 0.000000e+00, 1.333333e-03, 1.428571e-02
437, 5.000000e-04, 1.333333e-03, 1.428571e-02
438, 1.000000e-03, 1.333333e-03, 1.428571e-02
439, 0.000000e+00, 2.000000e-03, 1.428571e-02
440, 5.000000e-04, 2.000000e-03, 1.428571e-02
441, 1.000000e-03, 2.000000e-03, 1.428571e-02
442, 0.000000e+00, -2.000000e-03, 1.500000e-02
443, 5.000000e-04, -2.000000e-03, 1.500000e-02
444, 1.000000e-03, -2.000000e-03, 1.500000e-02
445, 0.000000e+00, -1.333333e-03, 1.500000e-02
446, 5.000000e-04, -1.333333e-03, 1.500000e-02
447, 1.000000e-03, -1.333333e-03, 1.500000e-02
448, 0.000000e+00, -6.666667e-04, 1.500000e-02
449, 5.000000e-04, -6.666667e-04, 1.500000e-02
450, 1.000000e-03, -6.666667e-04, 1.500000e-02
451, 0.000000e+00, 0.000000e+00, 1.500000e-02
452, 5.000000e-04, 0.000000e+00, 1.500000e-02
453, 1.000000e-03, 0.000000e+00, 1.500000e-02
454, 0.000000e+00, 6.666667e-04, 1.500000e-02
455, 5.000000e-04, 6.666667e-04, 1.500000e-02
456, 1.000000e-03, 6.666667e-04, 1.500000e-02
457, 0.000000e+00, 1.333333e-03, 1.500000e-02
458, 5.000000e-04, 1.333333e-03, 1.500000e-02
459, 1.000000e-03, 1.333333e-03, 1.500000e-02
460, 0.000000e+00, 2.000000e-03, 1.500000e-02
461, 5.000000e-04, 2.000000e-03, 1.500000e-02
462, 1.000000e-03, 2.000000e-03, 1.500000e-02
463, 0.000000e+00, -2.000000e-03, 1.571429e-02
464, 5.000000e-04, -2.000000e-03, 1.571429e-02
465, 1.000000e-03, -2.000000e-03, 1.571429e-02
466, 0.000000e+00, -1.333333e-03, 1.571429e-02
467, 5.000000e-04, -1.333333e-03, 1.571429e-02
468, 1.000000e-03, -1.333333e-03, 1.571429e-02
469, 0.000000e+00, -6.666667e-04, 1.571429e-02
470, 5.000000e-04, -6.666667e-04, 1.571429e-02
471, 1.000000e-03, -6.666667e-04, 1.571429e-02
472, 0.000000e+00, 0.000000e+00, 1.571429e-02
473, 5.000000e-04, 0.000000e+00, 1.571429e-02
474, 1.000000e-03, 0.000000e+00, 1.571429e-02
475, 0.000000e+00, 6.666667e-04, 1.571429e-02
476, 5.000000e-04, 6.666667e-04, 1.571429e-02
477, 1.000000e-03, 6.666667e-04, 1.571429e-02
478, 0.000000e+00, 1.333333e-03, 1.571429e-02
479, 5.000000e-04, 1.333333e-03, 1.571429e-02
480, 1.000000e-03, 1.333333e-03, 1.571429e-02
481, 0.000000e+00, 2.000000e-03, 1.571429e-02
482, 5.000000e-04, 2.000000e-03, 1.571429e-02
483, 1.000000e-03, 2.000000e-03, 1.571429e-02
484, 0.000000e+00, -2.000000e-03, 1.642857e-02
485, 5.000000e-04, -2.000000e-03, 1.642857e-02
486, 1.000000e-03, -2.000000e-03, 1.642857e-02
487, 0.000000e+00, -1.333333e-03, 1.642857e-02
488, 5.000000e-04, -1.333333e-03, 1.642857e-02
489, 1.000000e-03, -1.333333e-03, 1.642857e-02
490, 0.000000e+00, -6.666667e-04, 1.642857e-02
491, 5.000000e-04, -6.666667e-04, 1.642857e-02
492, 1.000000e-03, -6.666667e-04, 1.642857e-02
493, 0.000000e+00, 0.000000e+00, 1.642857e-02
494, 5.000000e-04, 0.000000e+00, 1.642857e-02
495, 1.000000e-03, 0.000000e+00, 1.642857e-02
496, 0.000000e+00, 6.666667e-04, 1.642857e-02
497, 5.000000e-04, 6.666667e-04, 1.642857e-02
498, 1.000000e-03, 6.666667e-04, 1.642857e-02
499, 0.000000e+00, 1.333333e-03, 1.642857e-02
500, 5.000000e-04, 1.333333e-03, 1.642857e-02
501, 1.000000e-03, 1.333333e-03, 1.642857e-02
502, 0.000000e+00, 2.000000e-03, 1.642857e-02
503, 5.000000e-04, 2.000000e-03, 1.642857e-02
504, 1.000000e-03, 2.000000e-03, 1.642857e-02
505, 0.000000e+00, -2.000000e-03, 1.714286e-02
506, 5.000000e-04, -2.000000e-03, 1.714286e-02
507, 1.000000e-03, -2.000000e-03, 1.714286e-02
508, 0.000000e+00, -1.333333e-03, 1.714286e-02
509, 5.000000e-04, -1.333333e-03, 1.714286e-02
510, 1.000000e-03, -1.333333e-03, 1.714286e-02
511, 0.000000e+00, -6.666667e-04, 1.714286e-02
512, 5.000000e-04, -6.666667e-04, 1.714286e-02
513, 1.000000e-03, -6.666667e-04, 1.714286e-02
514, 0.000000e+00, 0.000000e+00, 1.714286e-02
515, 5.000000e-04, 0.000000e+00, 1.714286e-02
516, 1.000000e-03, 0.000000e+00, 1.714286e-02
517, 0.000000e+00, 6.666667e-04, 1.714286e-02
518, 5.000000e-04, 6.666667e-04, 1.714286e-02
519, 1.000000e-03, 6.666667e-04, 1.714286e-02
520, 0.000000e+00, 1.333333e-03, 1.714286e-02
521, 5.000000e-04, 1.333333e-03, 1.714286e-02
522, 1.000000e-03, 1.333333e-03, 1.714286e-02
523, 0.000000e+00, 2.000000e-03, 1.714286e-02
524, 5.000000e-04, 2.000000e-03, 1.714286e-02
525, 1.000000e-03, 2.000000e-03, 1.714286e-02
526, 0.000000e+00, -2.000000e-03, 1.785714e-02
527, 5.000000e-04, -2.000000e-03, 1.785714e-02
528, 1.000000e-03, -2.000000e-03, 1.785714e-02
529, 0.000000e+00, -1.333333e-03, 1.785714e-02
530, 5.000000e-04, -1.333333e-03, 1.785714e-02
531, 1.000000e-03, -1.333333e-03, 1.785714e-02
532, 0.000000e+00, -6.666667e-04, 1.785714e-02
533, 5.000000e-04, -6.666667e-04, 1.785714e-02
534, 1.000000e-03, -6.666667e-04, 1.785714e-02
535, 0.000000e+00, 0.000000e+00, 1.785714e-02
536, 5.000000e-04, 0.000000e+00, 1.785714e-02
537, 1.000000e-03, 0.000000e+00, 1.785714e-02
538, 0.000000e+00, 6.666667e-04, 1.785714e-02
539, 5.000000e-04, 6.666667e-04, 1.785714e-02
540, 1.000000e-03, 6.666667e-04, 1.785714e-02
541, 0.000000e+00, 1.333333e-03, 1.785714e-02
542, 5.000000e-04, 1.333333e-03, 1.785714e-02
543, 1.000000e-03, 1.333333e-03, 1.785714e-02
544, 0.000000e+00, 2.000000e-03, 1.785714e-02
545, 5.000000e-04, 2.000000e-03, 1.785714e-02
546, 1.000000e-03, 2.000000e-03, 1.785714e-02
547, 0.000000e+00, -2.000000e-03, 1.857143e-02
548, 5.000000e-04, -2.000000e-03, 1.857143e-02
549, 1.000000e-03, -2.000000e-03, 1.857143e-02
550, 0.000000e+00, -1.333333e-03, 1.857143e-02
551, 5.000000e-04, -1.333333e-03, 1.857143e-02
552, 1.000000e-03, -1.333333e-03, 1.857143e-02
553, 0.000000e+00, -6.666667e-04, 1.857143e-02
554, 5.000000e-04, -6.666667e-04, 1.857143e-02
555, 1.000000e-03, -6.666667e-04, 1.857143e-02
556, 0.000000e+00, 0.000000e+00, 1.857143e-02
557, 5.000000e-04, 0.000000e+00, 1.857143e-02
558, 1.000000e-03, 0.000000e+00, 1.857143e-02
559, 0.000000e+00, 6.666667e-04, 1.857143e-02
560, 5.000000e-04, 6.666667e-04, 1.857143e-02
561, 1.000000e-03, 6.666667e-04, 1.857143e-02
562, 0.000000e+00, 1.333333e-03, 1.857143e-02
563, 5.000000e-04, 1.333333e-03, 1.857143e-02
564, 1.000000e-03, 1.333333e-03, 1.857143e-02
565, 0.000000e+00, 2.000000e-03, 1.857143e-02
566, 5.000000e-04, 2.000000e-03, 1.857143e-02
567, 1.000000e-03, 2.000000e-03, 1.857143e-02
568, 0.000000e+00, -2.000000e-03, 1.928571e-02
569, 5.000000e-04, -2.000000e-03, 1.928571e-02
570, 1.000000e-03, -2.000000e-03, 1.928571e-02
571, 0.000000e+00, -1.333333e-03, 1.928571e-02
572, 5.000000e-04, -1.333333e-03, 1.928571e-02
573, 1.000000e-03, -1.333333e-03, 1.928571e-02
574, 0.000000e+00, -6.666667e-04, 1.928571e-02
575, 5.000000e-04, -6.666667e-04, 1.928571e-02
576, 1.000000e-03, -6.666667e-04, 1.928571e-02
577, 0.000000e+00, 0.000000e+00, 1.928571e-02
578, 5.000000e-04, 0.000000e+00, 1.928571e-02
579, 1.000000e-03, 0.000000e+00, 1.928571e-02
580, 0.000000e+00, 6.666667e-04, 1.928571e-02
581, 5.000000e-04, 6.666667e-04, 1.928571e-02
582, 1.000000e-03, 6.666667e-04, 1.928571e-02
583, 0.000000e+00, 1.333333e-03, 1.928571e-02
584, 5.000000e-04, 1.333333e-03, 1.928571e-02
585, 1.000000e-03, 1.333333e-03, 1.928571e-02
586, 0.000000e+00, 2.000000e-03, 1.928571e-02
587, 5.000000e-04, 2.000000e-03, 1.928571e-02
588, 1.000000e-03, 2.000000e-03, 1.928571e-02
589, 0.000000e+00, -2.000000e-03, 2.000000e-02
590, 5.000000e-04, -2.000000e-03, 2.000000e-02
591, 1.000000e-03, -2.000000e-03, 2.000000e-02
592, 0.000000e+00, -1.333333e-03, 2.000000e-02
593, 5.000000e-04, -1.333333e-03, 2.000000e-02
594, 1.000000e-03, -1.333333e-03, 2.000000e-02
595, 0.000000e+00, -6.666667e-04, 2.000000e-02
596, 5.000000e-04, -6.666667e-04, 2.000000e-02
597, 1.000000e-03, -6.666667e-04, 2.000000e-02
598, 0.000000e+00, 0.000000e+00, 2.000000e-02
599, 5.000000e-04, 0.000000e+00, 2.000000e-02
600, 1.000000e-03, 0.000000e+00, 2.000000e-02
601, 0.000000e+00, 6.666667e-04, 2.000000e-02
602, 5.000000e-04, 6.666667e-04, 2.000000e-02
603, 1.000000e-03, 6.666667e-04, 2.000000e-02
604, 0.000000e+00, 1.333333e-03, 2.000000e-02
605, 5.000000e-04, 1.333333e-03, 2.000000e-02
606, 1.000000e-03, 1.333333e-03, 2.000000e-02
607, 0.000000e+00, 2.000000e-03, 2.000000e-02
608, 5.000000e-04, 2.000000e-03, 2.000000e-02
609, 1.000000e-03, 2.000000e-03, 2.000000e-02
610, 0.000000e+00, -2.000000e-03, 2.071429e-02
611, 5.000000e-04, -2.000000e-03, 2.071429e-02
612, 1.000000e-03, -2.000000e-03, 2.071429e-02
613, 0.000000e+00, -1.333333e-03, 2.071429e-02
614, 5.000000e-04, -1.333333e-03, 2.071429e-02
615, 1.000000e-03, -1.333333e-03, 2.071429e-02
616, 0.000000e+00, -6.666667e-04, 2.071429e-02
617, 5.000000e-04, -6.666667e-04, 2.071429e-02
618, 1.000000e-03, -6.666667e-04, 2.071429e-02
619, 0.000000e+00, 0.000000e+00, 2.071429e-02
620, 5.000000e-04, 0.000000e+00, 2.071429e-02
621, 1.000000e-03, 0.000000e+00, 2.071429e-02
622, 0.000000e+00, 6.666667e-04, 2.071429e-02
623, 5.000000e-04, 6.666667e-04, 2.071429e-02
624, 1.000000e-03, 6.666667e-04, 2.071429e-02
625, 0.000000e+00, 1.333333e-03, 2.071429e-02
626, 5.000000e-04, 1.333333e-03, 2.071429e-02
627, 1.000000e-03, 1.333333e-03, 2.071429e-02
628, 0.000000e+00, 2.000000e-03, 2.071429e-02
629, 5.000000e-04, 2.000000e-03, 2.071429e-02
630, 1.000000e-03, 2.000000e-03, 2.071429e-02
631, 0.000000e+00, -2.000000e-03, 2.142857e-02
632, 5.000000e-04, -2.000000e-03, 2.142857e-02
633, 1.000000e-03, -2.000000e-03, 2.142857e-02
634, 0.000000e+00, -1.333333e-03, 2.142857e-02
635, 5.000000e-04, -1.333333e-03, 2.142857e-02
636, 1.000000e-03, -1.333333e-03, 2.142857e-02
637, 0.000000e+00, -6.666667e-04, 2.142857e-02
638, 5.000000e-04, -6.666667e-04, 2.142857e-02
639, 1.000000e-03, -6.666667e-04, 2.142857e-02
640, 0.000000e+00, 0.000000e+00, 2.142857e-02
641, 5.000000e-04, 0.000000e+00, 2.142857e-02
642, 1.000000e-03, 0.000000e+00, 2.142857e-02
643, 0.000000e+00, 6.666667e-04, 2.142857e-02
644, 5.000000e-04, 6.666667e-04, 2.142857e-02
645, 1.000000e-03, 6.666667e-04, 2.142857e-02
646, 0.000000e+00, 1.333333e-03, 2.142857e-02
647, 5.000000e-04, 1.333333e-03, 2.142857e-02
648, 1.000000e-03, 1.333333e-03, 2.142857e-02
649, 0.000000e+00, 2.000000e-03, 2.142857e-02
650, 5.000000e-04, 2.000000e-03, 2.142857e-02
651, 1.000000e-03, 2.000000e-03, 2.142857e-02
652, 0.000000e+00, -2.000000e-03, 2.214286e-02
653, 5.000000e-04, -2.000000e-03, 2.214286e-02
654, 1.000000e-03, -2.000000e-03, 2.214286e-02
655, 0.000000e+00, -1.333333e-03, 2.214286e-02
656, 5.000000e-04, -1.333333e-03, 2.214286e-02
657, 1.000000e-03, -1.333333e-03, 2.214286e-02
658, 0.000000e+00, -6.666667e-04, 2.214286e-02
659, 5.000000e-04, -6.666667e-04, 2.214286e-02
660, 1.000000e-03, -6.666667e-04, 2.214286e-02
661, 0.000000e+00, 0.000000e+00, 2.214286e-02
662, 5.000000e-04, 0.000000e+00, 2.214286e-02
663, 1.000000e-03, 0.000000e+00, 2.214286e-02
664, 0.000000e+00, 6.666667e-04, 2.214286e-02
665, 5.000000e-04, 6.666667e-04, 2.214286e-02
666, 1.000000e-03, 6.666667e-04, 2.214286e-02
667, 0.000000e+00, 1.333333e-03, 2.214286e-02
668, 5.000000e-04, 1.333333e-03, 2.214286e-02
669, 1.000000e-03, 1.333333e-03, 2.214286e-02
670, 0.000000e+00, 2.000000e-03, 2.214286e-02
671, 5.000000e-04, 2.000000e-03, 2.214286e-02
672, 1.000000e-03, 2.000000e-03, 2.214286e-02
673, 0.000000e+00, -2.000000e-03, 2.285714e-02
674, 5.000000e-04, -2.000000e-03, 2.285714e-02
675, 1.000000e-03, -2.000000e-03, 2.285714e-02
676, 0.000000e+00, -1.333333e-03, 2.285714e-02
677, 5.000000e-04, -1.333333e-03, 2.285714e-02
678, 1.000000e-03, -1.333333e-03, 2.285714e-02
679, 0.000000e+00, -6.666667e-04, 2.285714e-02
680, 5.000000e-04, -6.666667e-04, 2.285714e-02
681, 1.000000e-03, -6.666667e-04, 2.285714e-02
682, 0.000000e+00, 0.000000e+00, 2.285714e-02
683, 5.000000e-04, 0.000000e+00, 2.285714e-02
684, 1.000000e-03, 0.000000e+00, 2.285714e-02
685, 0.000000e+00, 6.666667e-04, 2.285714e-02
686, 5.000000e-04, 6.666667e-04, 2.285714e-02
687, 1.000000e-03, 6.666667e-04, 2.285714e-02
688, 0.000000e+00, 1.333333e-03, 2.285714e-02
689, 5.000000e-04, 1.333333e-03, 2.285714e-02
690, 1.000000e-03, 1.333333e-03, 2.285714e-02
691, 0.000000e+00, 2.000000e-03, 2.285714e-02
692, 5.000000e-04, 2.000000e-03, 2.285714e-02
693, 1.000000e-03, 2.000000e-03, 2.285714e-02
694, 0.000000e+00, -2.000000e-03, 2.357143e-02
695, 5.000000e-04, -2.000000e-03, 2.357143e-02
696, 1.000000e-03, -2.000000e-03, 2.357143e-02
697, 0.000000e+00, -1.333333e-03, 2.357143e-02
698, 5.000000e-04, -1.333333e-03, 2.357143e-02
699, 1.000000e-03, -1.333333e-03, 2.357143e-02
700, 0.000000e+00, -6.666667e-04, 2.357143e-02
701, 5.000000e-04, -6.666667e-04, 2.357143e-02
702, 1.000000e-03, -6.666667e-04, 2.357143e-02
703, 0.000000e+00, 0.000000e+00, 2.357143e-02
704, 5.000000e-04, 0.000000e+00, 2.357143e-02
705, 1.000000e-03, 0.000000e+00, 2.357143e-02
706, 0.000000e+00, 6.666667e-04, 2.357143e-02
707, 5.000000e-04, 6.666667e-04, 2.357143e-02
708, 1.000000e-03, 6.666667e-04, 2.357143e-02
709, 0.000000e+00, 1.333333e-03, 2.357143e-02
710, 5.000000e-04, 1.333333e-03, 2.357143e-02
711, 1.000000e-03, 1.333333e-03, 2.357143e-02
712, 0.000000e+00, 2.000000e-03, 2.357143e-02
713, 5.000000e-04, 2.000000e-03, 2.357143e-02
714, 1.000000e-03, 2.000000e-03, 2.357143e-02
715, 0.000000e+00, -2.000000e-03, 2.428571e-02
716, 5.000000e-04, -2.000000e-03, 2.428571e-02
717, 1.000000e-03, -2.000000e-03, 2.428571e-02
718, 0.000000e+00, -1.333333e-03, 2.428571e-02
719, 5.000000e-04, -1.333333e-03, 2.428571e-02
720, 1.000000e-03, -1.333333e-03, 2.428571e-02
721, 0.000000e+00, -6.666667e-04, 2.428571e-02
722, 5.000000e-04, -6.666667e-04, 2.428571e-02
723, 1.000000e-03, -6.666667e-04, 2.428571e-02
724, 0.000000e+00, 0.000000e+00, 2.428571e-02
725, 5.000000e-04, 0.000000e+00, 2.428571e-02
726, 1.000000e-03, 0.000000e+00, 2.428571e-02
727, 0.000000e+00, 6.666667e-04, 2.428571e-02
728, 5.000000e-04, 6.666667e-04, 2.428571e-02
729, 1.000000e-03, 6.666667e-04, 2.428571e-02
730, 0.000000e+00, 1.333333e-03, 2.428571e-02
731, 5.000000e-04, 1.333333e-03, 2.428571e-02
732, 1.000000e-03, 1.333333e-03, 2.428571e-02
733, 0.000000e+00, 2.000000e-03, 2.428571e-02
734, 5.000000e-04, 2.000000e-03, 2.428571e-02
735, 1.000000e-03, 2.000000e-03, 2.428571e-02
736, 0.000000e+00, -2.000000e-03, 2.500000e-02
737, 5.000000e-04, -2.000000e-03, 2.500000e-02
738, 1.000000e-03, -2.000000e-03, 2.500000e-02
739, 0.000000e+00, -1.333333e-03, 2.500000e-02
740, 5.000000e-04, -1.333333e-03, 2.500000e-02
741, 1.000000e-03, -1.333333e-03, 2.500000e-02
742, 0.000000e+00, -6.666667e-04, 2.500000e-02
743, 5.000000e-04, -6.666667e-04, 2.500000e-02
744, 1.000000e-03, -6.666667e-04, 2.500000e-02
745, 0.000000e+00, 0.000000e+00, 2.500000e-02
746, 5.000000e-04, 0.000000e+00, 2.500000e-02
747, 1.000000e-03, 0.000000e+00, 2.500000e-02
748, 0.000000e+00, 6.666667e-04, 2.500000e-02
749, 5.000000e-04, 6.666667e-04, 2.500000e-02
750, 1.000000e-03, 6.666667e-04, 2.500000e-02
751, 0.000000e+00, 1.333333e-03, 2.500000e-02
752, 5.000000e-04, 1.333333e-03, 2.500000e-02
753, 1.000000e-03, 1.333333e-03, 2.500000e-02
754, 0.000000e+00, 2.000000e-03, 2.500000e-02
755, 5.000000e-04, 2.000000e-03, 2.500000e-02
756, 1.000000e-03, 2.000000e-03, 2.500000e-02
757, 0.000000e+00, -2.000000e-03, 2.571429e-02
758, 5.000000e-04, -2.000000e-03, 2.571429e-02
759, 1.000000e-03, -2.000000e-03, 2.571429e-02
760, 0.000000e+00, -1.333333e-03, 2.571429e-02
761, 5.000000e-04, -1.333333e-03, 2.571429e-02
762, 1.000000e-03, -1.333333e-03, 2.571429e-02
763, 0.000000e+00, -6.666667e-04, 2.571429e-02
764, 5.000000e-04, -6.666667e-04, 2.571429e-02
765, 1.000000e-03, -6.666667e-04, 2.571429e-02
766, 0.000000e+00, 0.000000e+00, 2.571429e-02
767, 5.000000e-04, 0.000000e+00, 2.571429e-02
768, 1.000000e-03, 0.000000e+00, 2.571429e-02
769, 0.000000e+00, 6.666667e-04, 2.571429e-02
770, 5.000000e-04, 6.666667e-04, 2.571429e-02
771, 1.000000e-03, 6.666667e-04, 2.571429e-02
772, 0.000000e+00, 1.333333e-03, 2.571429e-02
773, 5.000000e-04, 1.333333e-03, 2.571429e-02
774, 1.000000e-03, 1.333333e-03, 2.571429e-02
775, 0.000000e+00, 2.000000e-03, 2.571429e-02
776, 5.000000e-04, 2.000000e-03, 2.571429e-02
777, 1.000000e-03, 2.000000e-03, 2.571429e-02
778, 0.000000e+00, -2.000000e-03, 2.642857e-02
779, 5.000000e-04, -2.000000e-03, 2.642857e-02
780, 1.000000e-03, -2.000000e-03, 2.642857e-02
781, 0.000000e+00, -1.333333e-03, 2.642857e-02
782, 5.000000e-04, -1.333333e-03, 2.642857e-02
783, 1.000000e-03, -1.333333e-03, 2.642857e-02
784, 0.000000e+00, -6.666667e-04, 2.642857e-02
785, 5.000000e-04, -6.666667e-04, 2.642857e-02
786, 1.000000e-03, -6.666667e-04, 2.642857e-02
787, 0.000000e+00, 0.000000e+00, 2.642857e-02
788, 5.000000e-04, 0.000000e+00, 2.642857e-02
789, 1.000000e-03, 0.000000e+00, 2.642857e-02
790, 0.000000e+00, 6.666667e-04, 2.642857e-02
791, 5.000000e-04, 6.666667e-04, 2.642857e-02
792, 1.000000e-03, 6.666667e-04, 2.642857e-02
793, 0.000000e+00, 1.333333e-03, 2.642857e-02
794, 5.000000e-04, 1.333333e-03, 2.642857e-02
795, 1.000000e-03, 1.333333e-03, 2.642857e-02
796, 0.000000e+00, 2.000000e-03, 2.642857e-02
797, 5.000000e-04, 2.000000e-03, 2.642857e-02
798, 1.000000e-03, 2.000000e-03, 2.642857e-02
799, 0.000000e+00, -2.000000e-03, 2.714286e-02
800, 5.000000e-04, -2.000000e-03, 2.714286e-02
801, 1.000000e-03, -2.000000e-03, 2.714286e-02
802, 0.000000e+00, -1.333333e-03, 2.714286e-02
803, 5.000000e-04, -1.333333e-03, 2.714286e-02
804, 1.000000e-03, -1.333333e-03, 2.714286e-02
805, 0.000000e+00, -6.666667e-04, 2.714286e-02
806, 5.000000e-04, -6.666667e-04, 2.714286e-02
807, 1.000000e-03, -6.666667e-04, 2.714286e-02
808, 0.000000e+00, 0.000000e+00, 2.714286e-02
809, 5.000000e-04, 0.000000e+00, 2.714286e-02
810, 1.000000e-03, 0.000000e+00, 2.714286e-02
811, 0.000000e+00, 6.666667e-04, 2.714286e-02
812, 5.000000e-04, 6.666667e-04, 2.714286e-02
813, 1.000000e-03, 6.666667e-04, 2.714286e-02
814, 0.000000e+00, 1.333333e-03, 2.714286e-02
815, 5.000000e-04, 1.333333e-03, 2.714286e-02
816, 1.000000e-03, 1.333333e-03, 2.714286e-02
817, 0.000000e+00, 2.000000e-03, 2.714286e-02
818, 5.000000e-04, 2.000000e-03, 2.714286e-02
819, 1.000000e-03, 2.000000e-03, 2.714286e-02
820, 0.000000e+00, -2.000000e-03, 2.785714e-02
821, 5.000000e-04, -2.000000e-03, 2.785714e-02
822, 1.000000e-03, -2.000000e-03, 2.785714e-02
823, 0.000000e+00, -1.333333e-03, 2.785714e-02
824, 5.000000e-04, -1.333333e-03, 2.785714e-02
825, 1.000000e-03, -1.333333e-03, 2.785714e-02
826, 0.000000e+00, -6.666667e-04, 2.785714e-02
827, 5.000000e-04, -6.666667e-04, 2.785714e-02
828, 1.000000e-03, -6.666667e-04, 2.785714e-02
829, 0.000000e+00, 0.000000e+00, 2.785714e-02
830, 5.000000e-04, 0.000000e+00, 2.785714e-02
831, 1.000000e-03, 0.000000e+00, 2.785714e-02
832, 0.000000e+00, 6.666667e-04, 2.785714e-02
833, 5.000000e-04, 6.666667e-04, 2.785714e-02
834, 1.000000e-03, 6.666667e-04, 2.785714e-02
835, 0.000000e+00, 1.333333e-03, 2.785714e-02
836, 5.000000e-04, 1.333333e-03, 2.785714e-02
837, 1.000000e-03, 1.333333e-03, 2.785714e-02
838, 0.000000e+00, 2.000000e-03, 2.785714e-02
839, 5.000000e-04, 2.000000e-03, 2.785714e-02
840, 1.000000e-03, 2.000000e-03, 2.785714e-02
841, 0.000000e+00, -2.015941e-03, 2.857143e-02
842, 5.000000e-04, -2.015941e-03, 2.857143e-02
843, 1.000000e-03, -2.015941e-03, 2.857143e-02
844, 0.000000e+00, -1.343961e-03, 2.857143e-02
845, 5.000000e-04, -1.343961e-03, 2.857143e-02
846, 1.000000e-03, -1.343961e-03, 2.857143e-02
847, 0.000000e+00, -6.719804e-04, 2.857143e-02
848, 5.000000e-04, -6.719804e-04, 2.857143e-02
849, 1.000000e-03, -6.719804e-04, 2.857143e-02
850, 0.000000e+00, 0.000000e+00, 2.857143e-02
851, 5.000000e-04, 0.000000e+00, 2.857143e-02
852, 1.000000e-03, 0.000000e+00, 2.857143e-02
853, 0.000000e+00, 6.719804e-04, 2.857143e-02
854, 5.000000e-04, 6.719804e-04, 2.857143e-02
855, 1.000000e-03, 6.719804e-04, 2.857143e-02
856, 0.000000e+00, 1.343961e-03, 2.857143e-02
857, 5.000000e-04, 1.343961e-03, 2.857143e-02
858, 1.000000e-03, 1.343961e-03, 2.857143e-02
859, 0.000000e+00, 2.015941e-03, 2.857143e-02
860, 5.000000e-04, 2.015941e-03, 2.857143e-02
861, 1.000000e-03, 2.015941e-03, 2.857143e-02
862, 0.000000e+00, -2.077234e-03, 2.928571e-02
863, 5.000000e-04, -2.077234e-03, 2.928571e-02
864, 1.000000e-03, -2.077234e-03, 2.928571e-02
865, 0.000000e+00, -1.384823e-03, 2.928571e-02
866, 5.000000e-04, -1.384823e-03, 2.928571e-02
867, 1.000000e-03, -1.384823e-03, 2.928571e-02
868, 0.000000e+00, -6.924114e-04, 2.928571e-02
869, 5.000000e-04, -6.924114e-04, 2.928571e-02
870, 1.000000e-03, -6.924114e-04, 2.928571e-02
871, 0.000000e+00, 0.000000e+00, 2.928571e-02
872, 5.000000e-04, 0.000000e+00, 2.928571e-02
873, 1.000000e-03, 0.000000e+00, 2.928571e-02
874, 0.000000e+00, 6.924114e-04, 2.928571e-02
875, 5.000000e-04, 6.924114e-04, 2.928571e-02
876, 1.000000e-03, 6.924114e-04, 2.928571e-02
877, 0.000000e+00, 1.384823e-03, 2.928571e-02
878, 5.000000e-04, 1.384823e-03, 2.928571e-02
879, 1.000000e-03, 1.384823e-03, 2.928571e-02
880, 0.000000e+00, 2.077234e-03, 2.928571e-02
881, 5.000000e-04, 2.077234e-03, 2.928571e-02
882, 1.000000e-03, 2.077234e-03, 2.928571e-02
883, 0.000000e+00, -2.172746e-03, 3.000000e-02
884, 5.000000e-04, -2.172746e-03, 3.000000e-02
885, 1.000000e-03, -2.172746e-03, 3.000000e-02
886, 0.000000e+00, -1.448497e-03, 3.000000e-02
887, 5.000000e-04, -1.448497e-03, 3.000000e-02
888, 1.000000e-03, -1.448497e-03, 3.000000e-02
889, 0.000000e+00, -7.242486e-04, 3.000000e-02
890, 5.000000e-04, -7.242486e-04, 3.000000e-02
891, 1.000000e-03, -7.242486e-04, 3.000000e-02
892, 0.000000e+00, 0.000000e+00, 3.000000e-02
893, 5.000000e-04, 0.000000e+00, 3.000000e-02
894, 1.000000e-03, 0.000000e+00, 3.000000e-02
895, 0.000000e+00, 7.242486e-04, 3.000000e-02
896, 5.000000e-04, 7.242486e-04, 3.000000e-02
897, 1.000000e-03, 7.242486e-04, 3.000000e-02
898, 0.000000e+00, 1.448497e-03, 3.000000e-02
899, 5.000000e-04, 1.448497e-03, 3.000000e-02
900, 1.000000e-03, 1.448497e-03, 3.000000e-02
901, 0.000000e+00, 2.172746e-03, 3.000000e-02
902, 5.000000e-04, 2.172746e-03, 3.000000e-02
903, 1.000000e-03, 2.172746e-03, 3.000000e-02
904, 0.000000e+00, -2.283558e-03, 3.071429e-02
905, 5.000000e-04, -2.283558e-03, 3.071429e-02
906, 1.000000e-03, -2.283558e-03, 3.071429e-02
907, 0.000000e+00, -1.522372e-03, 3.071429e-02
908, 5.000000e-04, -1.522372e-03, 3.071429e-02
909, 1.000000e-03, -1.522372e-03, 3.071429e-02
910, 0.000000e+00, -7.611861e-04, 3.071429e-02
911, 5.000000e-04, -7.611861e-04, 3.071429e-02
912, 1.000000e-03, -7.611861e-04, 3.071429e-02
913, 0.000000e+00, 0.000000e+00, 3.071429e-02
914, 5.000000e-04, 0.000000e+00, 3.071429e-02
915, 1.000000e-03, 0.000000e+00, 3.071429e-02
916, 0.000000e+00, 7.611861e-04, 3.071429e-02
917, 5.000000e-04, 7.611861e-04, 3.071429e-02
918, 1.000000e-03, 7.611861e-04, 3.071429e-02
919, 0.000000e+00, 1.522372e-03, 3.071429e-02
920, 5.000000e-04, 1.522372e-03, 3.071429e-02
921, 1.000000e-03, 1.522372e-03, 3.071429e-02
922, 0.000000e+00, 2.283558e-03, 3.071429e-02
923, 5.000000e-04, 2.283558e-03, 3.071429e-02
924, 1.000000e-03, 2.283558e-03, 3.071429e-02
925, 0.000000e+00, -2.387724e-03, 3.142857e-02
926, 5.000000e-04, -2.387724e-03, 3.142857e-02
927, 1.000000e-03, -2.387724e-03, 3.142857e-02
928, 0.000000e+00, -1.591816e-03, 3.142857e-02
929, 5.000000e-04, -1.591816e-03, 3.142857e-02
930, 1.000000e-03, -1.591816e-03, 3.142857e-02
931, 0.000000e+00, -7.959081e-04, 3.142857e-02
932, 5.000000e-04, -7.959081e-04, 3.142857e-02
933, 1.000000e-03, -7.959081e-04, 3.142857e-02
934, 0.000000e+00, 0.000000e+00, 3.142857e-02
935, 5.000000e-04, 0.000000e+00, 3.142857e-02
936, 1.000000e-03, 0.000000e+00, 3.142857e-02
937, 0.000000e+00, 7.959081e-04, 3.142857e-02
938, 5.000000e-04, 7.959081e-04, 3.142857e-02
939, 1.000000e-03, 7.959081e-04, 3.142857e-02
940, 0.000000e+00, 1.591816e-03, 3.142857e-02
941, 5.000000e-04, 1.591816e-03, 3.142857e-02
942, 1.000000e-03, 1.591816e-03, 3.142857e-02
943, 0.000000e+00, 2.387724e-03, 3.142857e-02
944, 5.000000e-04, 2.387724e-03, 3.142857e-02
945, 1.000000e-03, 2.387724e-03, 3.142857e-02
946, 0.000000e+00, -2.464612e-03, 3.214286e-02
947, 5.000000e-04, -2.464612e-03, 3.214286e-02
948, 1.000000e-03, -2.464612e-03, 3.214286e-02
949, 0.000000e+00, -1.643075e-03, 3.214286e-02
950, 5.000000e-04, -1.643075e-03, 3.214286e-02
951, 1.000000e-03, -1.643075e-03, 3.214286e-02
952, 0.000000e+00, -8.215374e-04, 3.214286e-02
953, 5.000000e-04, -8.215374e-04, 3.214286e-02
954, 1.000000e-03, -8.215374e-04, 3.214286e-02
955, 0.000000e+00, 0.000000e+00, 3.214286e-02
956, 5.000000e-04, 0.000000e+00, 3.214286e-02
957, 1.000000e-03, 0.000000e+00, 3.214286e-02
958, 0.000000e+00, 8.215374e-04, 3.214286e-02
959, 5.000000e-04, 8.215374e-04, 3.214286e-02
960, 1.000000e-03, 8.215374e-04, 3.214286e-02
961, 0.000000e+00, 1.643075e-03, 3.214286e-02
962, 5.000000e-04, 1.643075e-03, 3.214286e-02
963, 1.000000e-03, 1.643075e-03, 3.214286e-02
964, 0.000000e+00, 2.464612e-03, 3.214286e-02
965, 5.000000e-04, 2.464612e-03, 3.214286e-02
966, 1.000000e-03, 2.464612e-03, 3.214286e-02
967, 0.000000e+00, -2.498994e-03, 3.285714e-02
968, 5.000000e-04, -2.498994e-03, 3.285714e-02
969, 1.000000e-03, -2.498994e-03, 3.285714e-02
970, 0.000000e+00, -1.665996e-03, 3.285714e-02
971, 5.000000e-04, -1.665996e-03, 3.285714e-02
972, 1.000000e-03, -1.665996e-03, 3.285714e-02
973, 0.000000e+00, -8.329979e-04, 3.285714e-02
974, 5.000000e-04, -8.329979e-04, 3.285714e-02
975, 1.000000e-03, -8.329979e-04, 3.285714e-02
976, 0.000000e+00, 0.000000e+00, 3.285714e-02
977, 5.000000e-04, 0.000000e+00, 3.285714e-02
978, 1.000000e-03, 0.000000e+00, 3.285714e-02
979, 0.000000e+00, 8.329979e-04, 3.285714e-02
980, 5.000000e-04, 8.329979e-04, 3.285714e-02
981, 1.000000e-03, 8.329979e-04, 3.285714e-02
982, 0.000000e+00, 1.665996e-03, 3.285714e-02
983, 5.000000e-04, 1.665996e-03, 3.285714e-02
984, 1.000000e-03, 1.665996e-03, 3.285714e-02
985, 0.000000e+00, 2.498994e-03, 3.285714e-02
986, 5.000000e-04, 2.498994e-03, 3.285714e-02
987, 1.000000e-03, 2.498994e-03, 3.285714e-02
988, 0.000000e+00, -2.500000e-03, 3.357143e-02
989, 5.000000e-04, -2.500000e-03, 3.357143e-02
990, 1.000000e-03, -2.500000e-03, 3.357143e-02
991, 0.000000e+00, -1.666667e-03, 3.357143e-02
992, 5.000000e-04, -1.666667e-03, 3.357143e-02
993, 1.000000e-03, -1.666667e-03, 3.357143e-02
994, 0.000000e+00, -8.333333e-04, 3.357143e-02
995, 5.000000e-04, -8.333333e-04, 3.357143e-02
996, 1.000000e-03, -8.333333e-04, 3.357143e-02
997, 0.000000e+00, 0.000000e+00, 3.357143e-02
998, 5.000000e-04, 0.000000e+00, 3.357143e-02
999, 1.000000e-03, 0.000000e+00, 3.357143e-02
1000, 0.000000e+00, 8.333333e-04, 3.357143e-02
1001, 5.000000e-04, 8.333333e-04, 3.357143e-02
1002, 1.000000e-03, 8.333333e-04, 3.357143e-02
1003, 0.000000e+00, 1.666667e-03, 3.357143e-02
1004, 5.000000e-04, 1.666667e-03, 3.357143e-02
1005, 1.000000e-03, 1.666667e-03, 3.357143e-02
1006, 0.000000e+00, 2.500000e-03, 3.357143e-02
1007, 5.000000e-04, 2.500000e-03, 3.357143e-02
1008, 1.000000e-03, 2.500000e-03, 3.357143e-02
1009, 0.000000e+00, -2.500000e-03, 3.428571e-02
1010, 5.000000e-04, -2.500000e-03, 3.428571e-02
1011, 1.000000e-03, -2.500000e-03, 3.428571e-02
1012, 0.000000e+00, -1.666667e-03, 3.428571e-02
1013, 5.000000e-04, -1.666667e-03, 3.428571e-02
1014, 1.000000e-03, -1.666667e-03, 3.428571e-02
1015, 0.000000e+00, -8.333333e-04, 3.428571e-02
1016, 5.000000e-04, -8.333333e-04, 3.428571e-02
1017, 1.000000e-03, -8.333333e-04, 3.428571e-02
1018, 0.000000e+00, 0.000000e+00, 3.428571e-02
1019, 5.000000e-04, 0.000000e+00, 3.428571e-02
1020, 1.000000e-03, 0.000000e+00, 3.428571e-02
1021, 0.000000e+00, 8.333333e-04, 3.428571e-02
1022, 5.000000e-04, 8.333333e-04, 3.428571e-02
1023, 1.000000e-03, 8.333333e-04, 3.428571e-02
1024, 0.000000e+00, 1.666667e-03, 3.428571e-02
1025, 5.000000e-04, 1.666667e-03, 3.428571e-02
1026, 1.000000e-03, 1.666667e-03, 3.428571e-02
1027, 0.000000e+00, 2.500000e-03, 3.428571e-02
1028, 5.000000e-04, 2.500000e-03, 3.428571e-02
1029, 1.000000e-03, 2.500000e-03, 3.428571e-02
1030, 0.000000e+00, -2.500000e-03, 3.500000e-02
1031, 5.000000e-04, -2.500000e-03, 3.500000e-02
1032, 1.000000e-03, -2.500000e-03, 3.500000e-02
1033, 0.000000e+00, -1.666667e-03, 3.500000e-02
1034, 5.000000e-04, -1.666667e-03, 3.500000e-02
1035, 1.000000e-03, -1.666667e-03, 3.500000e-02
1036, 0.000000e+00, -8.333333e-04, 3.500000e-02
1037, 5.000000e-04, -8.333333e-04, 3.500000e-02
1038, 1.000000e-03, -8.333333e-04, 3.500000e-02
1039, 0.000000e+00, 0.000000e+00, 3.500000e-02
1040, 5.000000e-04, 0.000000e+00, 3.500000e-02
1041, 1.000000e-03, 0.000000e+00, 3.500000e-02
1042, 0.000000e+00, 8.333333e-04, 3.500000e-02
1043, 5.000000e-04, 8.333333e-04, 3.500000e-02
1044, 1.000000e-03, 8.333333e-04, 3.500000e-02
1045, 0.000000e+00, 1.666667e-03, 3.500000e-02
1046, 5.000000e-04, 1.666667e-03, 3.500000e-02
1047, 1.000000e-03, 1.666667e-03, 3.500000e-02
1048, 0.000000e+00, 2.500000e-03, 3.500000e-02
1049, 5.000000e-04, 2.500000e-03, 3.500000e-02
1050, 1.000000e-03, 2.500000e-03, 3.500000e-02
1051, 0.000000e+00, -2.500000e-03, 3.571429e-02
1052, 5.000000e-04, -2.500000e-03, 3.571429e-02
1053, 1.000000e-03, -2.500000e-03, 3.571429e-02
1054, 0.000000e+00, -1.666667e-03, 3.571429e-02
1055, 5.000000e-04, -1.666667e-03, 3.571429e-02
1056, 1.000000e-03, -1.666667e-03, 3.571429e-02
1057, 0.000000e+00, -8.333333e-04, 3.571429e-02
1058, 5.000000e-04, -8.333333e-04, 3.571429e-02
1059, 1.000000e-03, -8.333333e-04, 3.571429e-02
1060, 0.000000e+00, 0.000000e+00, 3.571429e-02
1061, 5.000000e-04, 0.000000e+00, 3.571429e-02
1062, 1.000000e-03, 0.000000e+00, 3.571429e-02
1063, 0.000000e+00, 8.333333e-04, 3.571429e-02
1064, 5.000000e-04, 8.333333e-04, 3.571429e-02
1065, 1.000000e-03, 8.333333e-04, 3.571429e-02
1066, 0.000000e+00, 1.666667e-03, 3.571429e-02
1067, 5.000000e-04, 1.666667e-03, 3.571429e-02
1068, 1.000000e-03, 1.666667e-03, 3.571429e-02
1069, 0.000000e+00, 2.500000e-03, 3.571429e-02
1070, 5.000000e-04, 2.500000e-03, 3.571429e-02
1071, 1.000000e-03, 2.500000e-03, 3.571429e-02
1072, 0.000000e+00, -2.500000e-03, 3.642857e-02
1073, 5.000000e-04, -2.500000e-03, 3.642857e-02
1074, 1.000000e-03, -2.500000e-03, 3.642857e-02
1075, 0.000000e+00, -1.666667e-03, 3.642857e-02
1076, 5.000000e-04, -1.666667e-03, 3.642857e-02
1077, 1.000000e-03, -1.666667e-03, 3.642857e-02
1078, 0.000000e+00, -8.333333e-04, 3.642857e-02
1079, 5.000000e-04, -8.333333e-04, 3.642857e-02
1080, 1.000000e-03, -8.333333e-04, 3.642857e-02
1081, 0.000000e+00, 0.000000e+00, 3.642857e-02
1082, 5.000000e-04, 0.000000e+00, 3.642857e-02
1083, 1.000000e-03, 0.000000e+00, 3.642857e-02
1084, 0.000000e+00, 8.333333e-04, 3.642857e-02
1085, 5.000000e-04, 8.333333e-04, 3.642857e-02
1086, 1.000000e-03, 8.333333e-04, 3.642857e-02
1087, 0.000000e+00, 1.666667e-03, 3.642857e-02
1088, 5.000000e-04, 1.666667e-03, 3.642857e-02
1089, 1.000000e-03, 1.666667e-03, 3.642857e-02
1090, 0.000000e+00, 2.500000e-03, 3.642857e-02
1091, 5.000000e-04, 2.500000e-03, 3.642857e-02
1092, 1.000000e-03, 2.500000e-03, 3.642857e-02
1093, 0.000000e+00, -2.500000e-03, 3.714286e-02
1094, 5.000000e-04, -2.500000e-03, 3.714286e-02
1095, 1.000000e-03, -2.500000e-03, 3.714286e-02
1096, 0.000000e+00, -1.666667e-03, 3.714286e-02
1097, 5.000000e-04, -1.666667e-03, 3.714286e-02
1098, 1.000000e-03, -1.666667e-03, 3.714286e-02
1099, 0.000000e+00, -8.333333e-04, 3.714286e-02
1100, 5.000000e-04, -8.333333e-04, 3.714286e-02
1101, 1.000000e-03, -8.333333e-04, 3.714286e-02
1102, 0.000000e+00, 0.000000e+00, 3.714286e-02
1103, 5.000000e-04, 0.000000e+00, 3.714286e-02
1104, 1.000000e-03, 0.000000e+00, 3.714286e-02
1105, 0.000000e+00, 8.333333e-04, 3.714286e-02
1106, 5.000000e-04, 8.333333e-04, 3.714286e-02
1107, 1.000000e-03, 8.333333e-04, 3.714286e-02
1108, 0.000000e+00, 1.666667e-03, 3.714286e-02
1109, 5.000000e-04, 1.666667e-03, 3.714286e-02
1110, 1.000000e-03, 1.666667e-03, 3.714286e-02
1111, 0.000000e+00, 2.500000e-03, 3.714286e-02
1112, 5.000000e-04, 2.500000e-03, 3.714286e-02
1113, 1.000000e-03, 2.500000e-03, 3.714286e-02
1114, 0.000000e+00, -2.500000e-03, 3.785714e-02
1115, 5.000000e-04, -2.500000e-03, 3.785714e-02
1116, 1.000000e-03, -2.500000e-03, 3.785714e-02
1117, 0.000000e+00, -1.666667e-03, 3.785714e-02
1118, 5.000000e-04, -1.666667e-03, 3.785714e-02
1119, 1.000000e-03, -1.666667e-03, 3.785714e-02
1120, 0.000000e+00, -8.333333e-04, 3.785714e-02
1121, 5.000000e-04, -8.333333e-04, 3.785714e-02
1122, 1.000000e-03, -8.333333e-04, 3.785714e-02
1123, 0.000000e+00, 0.000000e+00, 3.785714e-02
1124, 5.000000e-04, 0.000000e+00, 3.785714e-02
1125, 1.000000e-03, 0.000000e+00, 3.785714e-02
1126, 0.000000e+00, 8.333333e-04, 3.785714e-02
1127, 5.000000e-04, 8.333333e-04, 3.785714e-02
1128, 1.000000e-03, 8.333333e-04, 3.785714e-02
1129, 0.000000e+00, 1.666667e-03, 3.785714e-02
1130, 5.000000e-04, 1.666667e-03, 3.785714e-02
1131, 1.000000e-03, 1.666667e-03, 3.785714e-02
1132, 0.000000e+00, 2.500000e-03, 3.785714e-02
1133, 5.000000e-04, 2.500000e-03, 3.785714e-02
1134, 1.000000e-03, 2.500000e-03, 3.785714e-02
1135, 0.000000e+00, -2.500000e-03, 3.857143e-02
1136, 5.000000e-04, -2.500000e-03, 3.857143e-02
1137, 1.000000e-03, -2.500000e-03, 3.857143e-02
1138, 0.000000e+00, -1.666667e-03, 3.857143e-02
1139, 5.000000e-04, -1.666667e-03, 3.857143e-02
1140, 1.000000e-03, -1.666667e-03, 3.857143e-02
1141, 0.000000e+00, -8.333333e-04, 3.857143e-02
1142, 5.000000e-04, -8.333333e-04, 3.857143e-02
1143, 1.000000e-03, -8.333333e-04, 3.857143e-02
1144, 0.000000e+00, 0.000000e+00, 3.857143e-02
1145, 5.000000e-04, 0.000000e+00, 3.857143e-02
1146, 1.000000e-03, 0.000000e+00, 3.857143e-02
1147, 0.000000e+00, 8.333333e-04, 3.857143e-02
1148, 5.000000e-04, 8.333333e-04, 3.857143e-02
1149, 1.000000e-03, 8.333333e-04, 3.857143e-02
1150, 0.000000e+00, 1.666667e-03, 3.857143e-02
1151, 5.000000e-04, 1.666667e-03, 3.857143e-02
1152, 1.000000e-03, 1.666667e-03, 3.857143e-02
1153, 0.000000e+00, 2.500000e-03, 3.857143e-02
1154, 5.000000e-04, 2.500000e-03, 3.857143e-02
1155, 1.000000e-03, 2.500000e-03, 3.857143e-02
1156, 0.000000e+00, -2.500000e-03, 3.928571e-02
1157, 5.000000e-04, -2.500000e-03, 3.928571e-02
1158, 1.000000e-03, -2.500000e-03, 3.928571e-02
1159, 0.000000e+00, -1.666667e-03, 3.928571e-02
1160, 5.000000e-04, -1.666667e-03, 3.928571e-02
1161, 1.000000e-03, -1.666667e-03, 3.928571e-02
1162, 0.000000e+00, -8.333333e-04, 3.928571e-02
1163, 5.000000e-04, -8.333333e-04, 3.928571e-02
1164, 1.000000e-03, -8.333333e-04, 3.928571e-02
1165, 0.000000e+00, 0.000000e+00, 3.928571e-02
1166, 5.000000e-04, 0.000000e+00, 3.928571e-02
1167, 1.000000e-03, 0.000000e+00, 3.928571e-02
1168, 0.000000e+00, 8.333333e-04, 3.928571e-02
1169, 5.000000e-04, 8.333333e-04, 3.928571e-02
1170, 1.000000e-03, 8.333333e-04, 3.928571e-02
1171, 0.000000e+00, 1.666667e-03, 3.928571e-02
1172, 5.000000e-04, 1.666667e-03, 3.928571e-02
1173, 1.000000e-03, 1.666667e-03, 3.928571e-02
1174, 0.000000e+00, 2.500000e-03, 3.928571e-02
1175, 5.000000e-04, 2.500000e-03, 3.928571e-02
1176, 1.000000e-03, 2.500000e-03, 3.928571e-02
1177, 0.000000e+00, -2.500000e-03, 4.000000e-02
1178, 5.000000e-04, -2.500000e-03, 4.000000e-02
1179, 1.000000e-03, -2.500000e-03, 4.000000e-02
1180, 0.000000e+00, -1.666667e-03, 4.000000e-02
1181, 5.000000e-04, -1.666667e-03, 4.000000e-02
1182, 1.000000e-03, -1.666667e-03, 4.000000e-02
1183, 0.000000e+00, -8.333333e-04, 4.000000e-02
1184, 5.000000e-04, -8.333333e-04, 4.000000e-02
1185, 1.000000e-03, -8.333333e-04, 4.000000e-02
1186, 0.000000e+00, 0.000000e+00, 4.000000e-02
1187, 5.000000e-04, 0.000000e+00, 4.000000e-02
1188, 1.000000e-03, 0.000000e+00, 4.000000e-02
1189, 0.000000e+00, 8.333333e-04, 4.000000e-02
1190, 5.000000e-04, 8.333333e-04, 4.000000e-02
1191, 1.000000e-03, 8.333333e-04, 4.000000e-02
1192, 0.000000e+00, 1.666667e-03, 4.000000e-02
1193, 5.000000e-04, 1.666667e-03, 4.000000e-02
1194, 1.000000e-03, 1.666667e-03, 4.000000e-02
1195, 0.000000e+00, 2.500000e-03, 4.000000e-02
1196, 5.000000e-04, 2.500000e-03, 4.000000e-02
1197, 1.000000e-03, 2.500000e-03, 4.000000e-02
*ELEMENT, TYPE=C3D8RT, ELSET=ALLEL
1, 1, 2, 5, 4, 22, 23, 26, 25
2, 2, 3, 6, 5, 23, 24, 27, 26
3, 4, 5, 8, 7, 25, 26, 29, 28
4, 5, 6, 9, 8, 26, 27, 30, 29
5, 7, 8, 11, 10, 28, 29, 32, 31
6, 8, 9, 12, 11, 29, 30, 33, 32
7, 10, 11, 14, 13, 31, 32, 35, 34
8, 11, 12, 15, 14, 32, 33, 36, 35
9, 13, 14, 17, 16, 34, 35, 38, 37
10, 14, 15, 18, 17, 35, 36, 39, 38
11, 16, 17, 20, 19, 37, 38, 41, 40
12, 17, 18, 21, 20, 38, 39, 42, 41
13, 22, 23, 26, 25, 43, 44, 47, 46
14, 23, 24, 27, 26, 44, 45, 48, 47
15, 25, 26, 29, 28, 46, 47, 50, 49
16, 26, 27, 30, 29, 47, 48, 51, 50
17, 28, 29, 32, 31, 49, 50, 53, 52
18, 29, 30, 33, 32, 50, 51, 54, 53
19, 31, 32, 35, 34, 52, 53, 56, 55
20, 32, 33, 36, 35, 53, 54, 57, 56
21, 34, 35, 38, 37, 55, 56, 59, 58
22, 35, 36, 39, 38, 56, 57, 60, 59
23, 37, 38, 41, 40, 58, 59, 62, 61
24, 38, 39, 42, 41, 59, 60, 63, 62
25, 43, 44, 47, 46, 64, 65, 68, 67
26, 44, 45, 48, 47, 65, 66, 69, 68
27, 46, 47, 50, 49, 67, 68, 71, 70
28, 47, 48, 51, 50, 68, 69, 72, 71
29, 49, 50, 53, 52, 70, 71, 74, 73
30, 50, 51, 54, 53, 71, 72, 75, 74
31, 52, 53, 56, 55, 73, 74, 77, 76
32, 53, 54, 57, 56, 74, 75, 78, 77
33, 55, 56, 59, 58, 76, 77, 80, 79
34, 56, 57, 60, 59, 77, 78, 81, 80
35, 58, 59, 62, 61, 79, 80, 83, 82
36, 59, 60, 63, 62, 80, 81, 84, 83
37, 64, 65, 68, 67, 85, 86, 89, 88
38, 65, 66, 69, 68, 86, 87, 90, 89
39, 67, 68, 71, 70, 88, 89, 92, 91
40, 68, 69, 72, 71, 89, 90, 93, 92
41, 70, 71, 74, 73, 91, 92, 95, 94
42, 71, 72, 75, 74, 92, 93, 96, 95
43, 73, 74, 77, 76, 94, 95, 98, 97
44, 74, 75, 78, 77, 95, 96, 99, 98
45, 76, 77, 80, 79, 97, 98, 101, 100
46, 77, 78, 81, 80, 98, 99, 102, 101
47, 79, 80, 83, 82, 100, 101, 104, 103
48, 80, 81, 84, 83, 101, 102, 105, 104
49, 85, 86, 89, 88, 106, 107, 110, 109
50, 86, 87, 90, 89, 107, 108, 111, 110
51, 88, 89, 92, 91, 109, 110, 113, 112
52, 89, 90, 93, 92, 110, 111, 114, 113
53, 91, 92, 95, 94, 112, 113, 116, 115
54, 92, 93, 96, 95, 113, 114, 117, 116
55, 94, 95, 98, 97, 115, 116, 119, 118
56, 95, 96, 99, 98, 116, 117, 120, 119
57, 97, 98, 101, 100, 118, 119, 122, 121
58, 98, 99, 102, 101, 119, 120, 123, 122
59, 100, 101, 104, 103, 121, 122, 125, 124
60, 101, 102, 105, 104, 122, 123, 126, 125
61, 106, 107, 110, 109, 127, 128, 131, 130
62, 107, 108, 111, 110, 128, 129, 132, 131
63, 109, 110, 113, 112, 130, 131, 134, 133
64, 110, 111, 114, 113, 131, 132, 135, 134
65, 112, 113, 116, 115, 133, 134, 137, 136
66, 113, 114, 117, 116, 134, 135, 138, 137
67, 115, 116, 119, 118, 136, 137, 140, 139
68, 116, 117, 120, 119, 137, 138, 141, 140
69, 118, 119, 122, 121, 139, 140, 143, 142
70, 119, 120, 123, 122, 140, 141, 144, 143
71, 121, 122, 125, 124, 142, 143, 146, 145
72, 122, 123, 126, 125, 143, 144, 147, 146
73, 127, 128, 131, 130, 148, 149, 152, 151
74, 128, 129, 132, 131, 149, 150, 153, 152
75, 130, 131, 134, 133, 151, 152, 155, 154
76, 131, 132, 135, 134, 152, 153, 156, 155
77, 133, 134, 137, 136, 154, 155, 158, 157
78, 134, 135, 138, 137, 155, 156, 159, 158
79, 136, 137, 140, 139, 157, 158, 161, 160
80, 137, 138, 141, 140, 158, 159, 162, 161
81, 139, 140, 143, 142, 160, 161, 164, 163
82, 140, 141, 144, 143, 161, 162, 165, 164
83, 142, 143, 146, 145, 163, 164, 167, 166
84, 143, 144, 147, 146, 164, 165, 168, 167
85, 148, 149, 152, 151, 169, 170, 173, 172
86, 149, 150, 153, 152, 170, 171, 174, 173
87, 151, 152, 155, 154, 172, 173, 176, 175
88, 152, 153, 156, 155, 173, 174, 177, 176
89, 154, 155, 158, 157, 175, 176, 179, 178
90, 155, 156, 159, 158, 176, 177, 180, 179
91, 157, 158, 161, 160, 178, 179, 182, 181
92, 158, 159, 162, 161, 179, 180, 183, 182
93, 160, 161, 164, 163, 181, 182, 185, 184
94, 161, 162, 165, 164, 182, 183, 186, 185
95, 163, 164, 167, 166, 184, 185, 188, 187
96, 164, 165, 168, 167, 185, 186, 189, 188
97, 169, 170, 173, 172, 190, 191, 194, 193
98, 170, 171, 174, 173, 191, 192, 195, 194
99, 172, 173, 176, 175, 193, 194, 197, 196
100, 173, 174, 177, 176, 194, 195, 198, 197
101, 175, 176, 179, 178, 196, 197, 200, 199
102, 176, 177, 180, 179, 197, 198, 201, 200
103, 178, 179, 182, 181, 199, 200, 203, 202
104, 179, 180, 183, 182, 200, 201, 204, 203
105, 181, 182, 185, 184, 202, 203, 206, 205
106, 182, 183, 186, 185, 203, 204, 207, 206
107, 184, 185, 188, 187, 205, 206, 209, 208
108, 185, 186, 189, 188, 206, 207, 210, 209
109, 190, 191, 194, 193, 211, 212, 215, 214
110, 191, 192, 195, 194, 212, 213, 216, 215
111, 193, 194, 197, 196, 214, 215, 218, 217
112, 194, 195, 198, 197, 215, 216, 219, 218
113, 196, 197, 200, 199, 217, 218, 221, 220
114, 197, 198, 201, 200, 218, 219, 222, 221
115, 199, 200, 203, 202, 220, 221, 224, 223
116, 200, 201, 204, 203, 221, 222, 225, 224
117, 202, 203, 206, 205, 223, 224, 227, 226
118, 203, 204, 207, 206, 224, 225, 228, 227
119, 205, 206, 209, 208, 226, 227, 230, 229
120, 206, 207, 210, 209, 227, 228, 231, 230
121, 211, 212, 215, 214, 232, 233, 236, 235
122, 212, 213, 216, 215, 233, 234, 237, 236
123, 214, 215, 218, 217, 235, 236, 239, 238
124, 215, 216, 219, 218, 236, 237, 240, 239
125, 217, 218, 221, 220, 238, 239, 242, 241
126, 218, 219, 222, 221, 239, 240, 243, 242
127, 220, 221, 224, 223, 241, 242, 245, 244
128, 221, 222, 225, 224, 242, 243, 246, 245
129, 223, 224, 227, 226, 244, 245, 248, 247
130, 224, 225, 228, 227, 245, 246, 249, 248
131, 226, 227, 230, 229, 247, 248, 251, 250
132, 227, 228, 231, 230, 248, 249, 252, 251
133, 232, 233, 236, 235, 253, 254, 257, 256
134, 233, 234, 237, 236, 254, 255, 258, 257
135, 235, 236, 239, 238, 256, 257, 260, 259
136, 236, 237, 240, 239, 257, 258, 261, 260
137, 238, 239, 242, 241, 259, 260, 263, 262
138, 239, 240, 243, 242, 260, 261, 264, 263
139, 241, 242, 245, 244, 262, 263, 266, 265
140, 242, 243, 246, 245, 263, 264, 267, 266
141, 244, 245, 248, 247, 265, 266, 269, 268
142, 245, 246, 249, 248, 266, 267, 270, 269
143, 247, 248, 251, 250, 268, 269, 272, 271
144, 248, 249, 252, 251, 269, 270, 273, 272
145, 253, 254, 257, 256, 274, 275, 278, 277
146, 254, 255, 258, 257, 275, 276, 279, 278
147, 256, 257, 260, 259, 277, 278, 281, 280
148, 257, 258, 261, 260, 278, 279, 282, 281
149, 259, 260, 263, 262, 280, 281, 284, 283
150, 260, 261, 264, 263, 281, 282, 285, 284
151, 262, 263, 266, 265, 283, 284, 287, 286
152, 263, 264, 267, 266, 284, 285, 288, 287
153, 265, 266, 269, 268, 286, 287, 290, 289
154, 266, 267, 270, 269, 287, 288, 291, 290
155, 268, 269, 272, 271, 289, 290, 293, 292
156, 269, 270, 273, 272, 290, 291, 294, 293
157, 274, 275, 278, 277, 295, 296, 299, 298
158, 275, 276, 279, 278, 296, 297, 300, 299
159, 277, 278, 281, 280, 298, 299, 302, 301
160, 278, 279, 282, 281, 299, 300, 303, 302
161, 280, 281, 284, 283, 301, 302, 305, 304
162, 281, 282, 285, 284, 302, 303, 306, 305
163, 283, 284, 287, 286, 304, 305, 308, 307
164, 284, 285, 288, 287, 305, 306, 309, 308
165, 286, 287, 290, 289, 307, 308, 311, 310
166, 287, 288, 291, 290, 308, 309, 312, 311
167, 289, 290, 293, 292, 310, 311, 314, 313
168, 290, 291, 294, 293, 311, 312, 315, 314
169, 295, 296, 299, 298, 316, 317, 320, 319
170, 296, 297, 300, 299, 317, 318, 321, 320
171, 298, 299, 302, 301, 319, 320, 323, 322
172, 299, 300, 303, 302, 320, 321, 324, 323
173, 301, 302, 305, 304, 322, 323, 326, 325
174, 302, 303, 306, 305, 323, 324, 327, 326
175, 304, 305, 308, 307, 325, 326, 329, 328
176, 305, 306, 309, 308, 326, 327, 330, 329
177, 307, 308, 311, 310, 328, 329, 332, 331
178, 308, 309, 312, 311, 329, 330, 333, 332
179, 310, 311, 314, 313, 331, 332, 335, 334
180, 311, 312, 315, 314, 332, 333, 336, 335
181, 316, 317, 320, 319, 337, 338, 341, 340
182, 317, 318, 321, 320, 338, 339, 342, 341
183, 319, 320, 323, 322, 340, 341, 344, 343
184, 320, 321, 324, 323, 341, 342, 345, 344
185, 322, 323, 326, 325, 343, 344, 347, 346
186, 323, 324, 327, 326, 344, 345, 348, 347
187, 325, 326, 329, 328, 346, 347, 350, 349
188, 326, 327, 330, 329, 347, 348, 351, 350
189, 328, 329, 332, 331, 349, 350, 353, 352
190, 329, 330, 333, 332, 350, 351, 354, 353
191, 331, 332, 335, 334, 352, 353, 356, 355
192, 332, 333, 336, 335, 353, 354, 357, 356
193, 337, 338, 341, 340, 358, 359, 362, 361
194, 338, 339, 342, 341, 359, 360, 363, 362
195, 340, 341, 344, 343, 361, 362, 365, 364
196, 341, 342, 345, 344, 362, 363, 366, 365
197, 343, 344, 347, 346, 364, 365, 368, 367
198, 344, 345, 348, 347, 365, 366, 369, 368
199, 346, 347, 350, 349, 367, 368, 371, 370
200, 347, 348, 351, 350, 368, 369, 372, 371
201, 349, 350, 353, 352, 370, 371, 374, 373
202, 350, 351, 354, 353, 371, 372, 375, 374
203, 352, 353, 356, 355, 373, 374, 377, 376
204, 353, 354, 357, 356, 374, 375, 378, 377
205, 358, 359, 362, 361, 379, 380, 383, 382
206, 359, 360, 363, 362, 380, 381, 384, 383
207, 361, 362, 365, 364, 382, 383, 386, 385
208, 362, 363, 366, 365, 383, 384, 387, 386
209, 364, 365, 368, 367, 385, 386, 389, 388
210, 365, 366, 369, 368, 386, 387, 390, 389
211, 367, 368, 371, 370, 388, 389, 392, 391
212, 368, 369, 372, 371, 389, 390, 393, 392
213, 370, 371, 374, 373, 391, 392, 395, 394
214, 371, 372, 375, 374, 392, 393, 396, 395
215, 373, 374, 377, 376, 394, 395, 398, 397
216, 374, 375, 378, 377, 395, 396, 399, 398
217, 379, 380, 383, 382, 400, 401, 404, 403
218, 380, 381, 384, 383, 401, 402, 405, 404
219, 382, 383, 386, 385, 403, 404, 407, 406
220, 383, 384, 387, 386, 404, 405, 408, 407
221, 385, 386, 389, 388, 406, 407, 410, 409
222, 386, 387, 390, 389, 407, 408, 411, 410
223, 388, 389, 392, 391, 409, 410, 413, 412
224, 389, 390, 393, 392, 410, 411, 414, 413
225, 391, 392, 395, 394, 412, 413, 416, 415
226, 392, 393, 396, 395, 413, 414, 417, 416
227, 394, 395, 398, 397, 415, 416, 419, 418
228, 395, 396, 399, 398, 416, 417, 420, 419
229, 400, 401, 404, 403, 421, 422, 425, 424
230, 401, 402, 405, 404, 422, 423, 426, 425
231, 403, 404, 407, 406, 424, 425, 428, 427
232, 404, 405, 408, 407, 425, 426, 429, 428
233, 406, 407, 410, 409, 427, 428, 431, 430
234, 407, 408, 411, 410, 428, 429, 432, 431
235, 409, 410, 413, 412, 430, 431, 434, 433
236, 410, 411, 414, 413, 431, 432, 435, 434
237, 412, 413, 416, 415, 433, 434, 437, 436
238, 413, 414, 417, 416, 434, 435, 438, 437
239, 415, 416, 419, 418, 436, 437, 440, 439
240, 416, 417, 420, 419, 437, 438, 441, 440
241, 421, 422, 425, 424, 442, 443, 446, 445
242, 422, 423, 426, 425, 443, 444, 447, 446
243, 424, 425, 428, 427, 445, 446, 449, 448
244, 425, 426, 429, 428, 446, 447, 450, 449
245, 427, 428, 431, 430, 448, 449, 452, 451
246, 428, 429, 432, 431, 449, 450, 453, 452
247, 430, 431, 434, 433, 451, 452, 455, 454
248, 431, 432, 435, 434, 452, 453, 456, 455
249, 433, 434, 437, 436, 454, 455, 458, 457
250, 434, 435, 438, 437, 455, 456, 459, 458
251, 436, 437, 440, 439, 457, 458, 461, 460
252, 437, 438, 441, 440, 458, 459, 462, 461
253, 442, 443, 446, 445, 463, 464, 467, 466
254, 443, 444, 447, 446, 464, 465, 468, 467
255, 445, 446, 449, 448, 466, 467, 470, 469
256, 446, 447, 450, 449, 467, 468, 471, 470
257, 448, 449, 452, 451, 469, 470, 473, 472
258, 449, 450, 453, 452, 470, 471, 474, 473
259, 451, 452, 455, 454, 472, 473, 476, 475
260, 452, 453, 456, 455, 473, 474, 477, 476
261, 454, 455, 458, 457, 475, 476, 479, 478
262, 455, 456, 459, 458, 476, 477, 480, 479
263, 457, 458, 461, 460, 478, 479, 482, 481
264, 458, 459, 462, 461, 479, 480, 483, 482
265, 463, 464, 467, 466, 484, 485, 488, 487
266, 464, 465, 468, 467, 485, 486, 489, 488
267, 466, 467, 470, 469, 487, 488, 491, 490
268, 467, 468, 471, 470, 488, 489, 492, 491
269, 469, 470, 473, 472, 490, 491, 494, 493
270, 470, 471, 474, 473, 491, 492, 495, 494
271, 472, 473, 476, 475, 493, 494, 497, 496
272, 473, 474, 477, 476, 494, 495, 498, 497
273, 475, 476, 479, 478, 496, 497, 500, 499
274, 476, 477, 480, 479, 497, 498, 501, 500
275, 478, 479, 482, 481, 499, 500, 503, 502
276, 479, 480, 483, 482, 500, 501, 504, 503
277, 484, 485, 488, 487, 505, 506, 509, 508
278, 485, 486, 489, 488, 506, 507, 510, 509
279, 487, 488, 491, 490, 508, 509, 512, 511
280, 488, 489, 492, 491, 509, 510, 513, 512
281, 490, 491, 494, 493, 511, 512, 515, 514
282, 491, 492, 495, 494, 512, 513, 516, 515
283, 493, 494, 497, 496, 514, 515, 518, 517
284, 494, 495, 498, 497, 515, 516, 519, 518
285, 496, 497, 500, 499, 517, 518, 521, 520
286, 497, 498, 501, 500, 518, 519, 522, 521
287, 499, 500, 503, 502, 520, 521, 524, 523
288, 500, 501, 504, 503, 521, 522, 525, 524
289, 505, 506, 509, 508, 526, 527, 530, 529
290, 506, 507, 510, 509, 527, 528, 531, 530
291, 508, 509, 512, 511, 529, 530, 533, 532
292, 509, 510, 513, 512, 530, 531, 534, 533
293, 511, 512, 515, 514, 532, 533, 536, 535
294, 512, 513, 516, 515, 533, 534, 537, 536
295, 514, 515, 518, 517, 535, 536, 539, 538
296, 515, 516, 519, 518, 536, 537, 540, 539
297, 517, 518, 521, 520, 538, 539, 542, 541
298, 518, 519, 522, 521, 539, 540, 543, 542
299, 520, 521, 524, 523, 541, 542, 545, 544
300, 521, 522, 525, 524, 542, 543, 546, 545
301, 526, 527, 530, 529, 547, 548, 551, 550
302, 527, 528, 531, 530, 548, 549, 552, 551
303, 529, 530, 533, 532, 550, 551, 554, 553
304, 530, 531, 534, 533, 551, 552, 555, 554
305, 532, 533, 536, 535, 553, 554, 557, 556
306, 533, 534, 537, 536, 554, 555, 558, 557
307, 535, 536, 539, 538, 556, 557, 560, 559
308, 536, 537, 540, 539, 557, 558, 561, 560
309, 538, 539, 542, 541, 559, 560, 563, 562
310, 539, 540, 543, 542, 560, 561, 564, 563
311, 541, 542, 545, 544, 562, 563, 566, 565
312, 542, 543, 546, 545, 563, 564, 567, 566
313, 547, 548, 551, 550, 568, 569, 572, 571
314, 548, 549, 552, 551, 569, 570, 573, 572
315, 550, 551, 554, 553, 571, 572, 575, 574
316, 551, 552, 555, 554, 572, 573, 576, 575
317, 553, 554, 557, 556, 574, 575, 578, 577
318, 554, 555, 558, 557, 575, 576, 579, 578
319, 556, 557, 560, 559, 577, 578, 581, 580
320, 557, 558, 561, 560, 578, 579, 582, 581
321, 559, 560, 563, 562, 580, 581, 584, 583
322, 560, 561, 564, 563, 581, 582, 585, 584
323, 562, 563, 566, 565, 583, 584, 587, 586
324, 563, 564, 567, 566, 584, 585, 588, 587
325, 568, 569, 572, 571, 589, 590, 593, 592
326, 569, 570, 573, 572, 590, 591, 594, 593
327, 571, 572, 575, 574, 592, 593, 596, 595
328, 572, 573, 576, 575, 593, 594, 597, 596
329, 574, 575, 578, 577, 595, 596, 599, 598
330, 575, 576, 579, 578, 596, 597, 600, 599
331, 577, 578, 581, 580, 598, 599, 602, 601
332, 578, 579, 582, 581, 599, 600, 603, 602
333, 580, 581, 584, 583, 601, 602, 605, 604
334, 581, 582, 585, 584, 602, 603, 606, 605
335, 583, 584, 587, 586, 604, 605, 608, 607
336, 584, 585, 588, 587, 605, 606, 609, 608
337, 589, 590, 593, 592, 610, 611, 614, 613
338, 590, 591, 594, 593, 611, 612, 615, 614
339, 592, 593, 596, 595, 613, 614, 617, 616
340, 593, 594, 597, 596, 614, 615, 618, 617
341, 595, 596, 599, 598, 616, 617, 620, 619
342, 596, 597, 600, 599, 617, 618, 621, 620
343, 598, 599, 602, 601, 619, 620, 623, 622
344, 599, 600, 603, 602, 620, 621, 624, 623
345, 601, 602, 605, 604, 622, 623, 626, 625
346, 602, 603, 606, 605, 623, 624, 627, 626
347, 604, 605, 608, 607, 625, 626, 629, 628
348, 605, 606, 609, 608, 626, 627, 630, 629
349, 610, 611, 614, 613, 631, 632, 635, 634
350, 611, 612, 615, 614, 632, 633, 636, 635
351, 613, 614, 617, 616, 634, 635, 638, 637
352, 614, 615, 618, 617, 635, 636, 639, 638
353, 616, 617, 620, 619, 637, 638, 641, 640
354, 617, 618, 621, 620, 638, 639, 642, 641
355, 619, 620, 623, 622, 640, 641, 644, 643
356, 620, 621, 624, 623, 641, 642, 645, 644
357, 622, 623, 626, 625, 643, 644, 647, 646
358, 623, 624, 627, 626, 644, 645, 648, 647
359, 625, 626, 629, 628, 646, 647, 650, 649
360, 626, 627, 630, 629, 647, 648, 651, 650
361, 631, 632, 635, 634, 652, 653, 656, 655
362, 632, 633, 636, 635, 653, 654, 657, 656
363, 634, 635, 638, 637, 655, 656, 659, 658
364, 635, 636, 639, 638, 656, 657, 660, 659
365, 637, 638, 641, 640, 658, 659, 662, 661
366, 638, 639, 642, 641, 659, 660, 663, 662
367, 640, 641, 644, 643, 661, 662, 665, 664
368, 641, 642, 645, 644, 662, 663, 666, 665
369, 643, 644, 647, 646, 664, 665, 668, 667
370, 644, 645, 648, 647, 665, 666, 669, 668
371, 646, 647, 650, 649, 667, 668, 671, 670
372, 647, 648, 651, 650, 668, 669, 672, 671
373, 652, 653, 656, 655, 673, 674, 677, 676
374, 653, 654, 657, 656, 674, 675, 678, 677
375, 655, 656, 659, 658, 676, 677, 680, 679
376, 656, 657, 660, 659, 677, 678, 681, 680
377, 658, 659, 662, 661, 679, 680, 683, 682
378, 659, 660, 663, 662, 680, 681, 684, 683
379, 661, 662, 665, 664, 682, 683, 686, 685
380, 662, 663, 666, 665, 683, 684, 687, 686
381, 664, 665, 668, 667, 685, 686, 689, 688
382, 665, 666, 669, 668, 686, 687, 690, 689
383, 667, 668, 671, 670, 688, 689, 692, 691
384, 668, 669, 672, 671, 689, 690, 693, 692
385, 673, 674, 677, 676, 694, 695, 698, 697
386, 674, 675, 678, 677, 695, 696, 699, 698
387, 676, 677, 680, 679, 697, 698, 701, 700
388, 677, 678, 681, 680, 698, 699, 702, 701
389, 679, 680, 683, 682, 700, 701, 704, 703
390, 680, 681, 684, 683, 701, 702, 705, 704
391, 682, 683, 686, 685, 703, 704, 707, 706
392, 683, 684, 687, 686, 704, 705, 708, 707
393, 685, 686, 689, 688, 706, 707, 710, 709
394, 686, 687, 690, 689, 707, 708, 711, 710
395, 688, 689, 692, 691, 709, 710, 713, 712
396, 689, 690, 693, 692, 710, 711, 714, 713
397, 694, 695, 698, 697, 715, 716, 719, 718
398, 695, 696, 699, 698, 716, 717, 720, 719
399, 697, 698, 701, 700, 718, 719, 722, 721
400, 698, 699, 702, 701, 719, 720, 723, 722
401, 700, 701, 704, 703, 721, 722, 725, 724
402, 701, 702, 705, 704, 722, 723, 726, 725
403, 703, 704, 707, 706, 724, 725, 728, 727
404, 704, 705, 708, 707, 725, 726, 729, 728
405, 706, 707, 710, 709, 727, 728, 731, 730
406, 707, 708, 711, 710, 728, 729, 732, 731
407, 709, 710, 713, 712, 730, 731, 734, 733
408, 710, 711, 714, 713, 731, 732, 735, 734
409, 715, 716, 719, 718, 736, 737, 740, 739
410, 716, 717, 720, 719, 737, 738, 741, 740
411, 718, 719, 722, 721, 739, 740, 743, 742
412, 719, 720, 723, 722, 740, 741, 744, 743
413, 721, 722, 725, 724, 742, 743, 746, 745
414, 722, 723, 726, 725, 743, 744, 747, 746
415, 724, 725, 728, 727, 745, 746, 749, 748
416, 725, 726, 729, 728, 746, 747, 750, 749
417, 727, 728, 731, 730, 748, 749, 752, 751
418, 728, 729, 732, 731, 749, 750, 753, 752
419, 730, 731, 734, 733, 751, 752, 755, 754
420, 731, 732, 735, 734, 752, 753, 756, 755
421, 736, 737, 740, 739, 757, 758, 761, 760
422, 737, 738, 741, 740, 758, 759, 762, 761
423, 739, 740, 743, 742, 760, 761, 764, 763
424, 740, 741, 744, 743, 761, 762, 765, 764
425, 742, 743, 746, 745, 763, 764, 767, 766
426, 743, 744, 747, 746, 764, 765, 768, 767
427, 745, 746, 749, 748, 766, 767, 770, 769
428, 746, 747, 750, 749, 767, 768, 771, 770
429, 748, 749, 752, 751, 769, 770, 773, 772
430, 749, 750, 753, 752, 770, 771, 774, 773
431, 751, 752, 755, 754, 772, 773, 776, 775
432, 752, 753, 756, 755, 773, 774, 777, 776
433, 757, 758, 761, 760, 778, 779, 782, 781
434, 758, 759, 762, 761, 779, 780, 783, 782
435, 760, 761, 764, 763, 781, 782, 785, 784
436, 761, 762, 765, 764, 782, 783, 786, 785
437, 763, 764, 767, 766, 784, 785, 788, 787
438, 764, 765, 768, 767, 785, 786, 789, 788
439, 766, 767, 770, 769, 787, 788, 791, 790
440, 767, 768, 771, 770, 788, 789, 792, 791
441, 769, 770, 773, 772, 790, 791, 794, 793
442, 770, 771, 774, 773, 791, 792, 795, 794
443, 772, 773, 776, 775, 793, 794, 797, 796
444, 773, 774, 777, 776, 794, 795, 798, 797
445, 778, 779, 782, 781, 799, 800, 803, 802
446, 779, 780, 783, 782, 800, 801, 804, 803
447, 781, 782, 785, 784, 802, 803, 806, 805
448, 782, 783, 786, 785, 803, 804, 807, 806
449, 784, 785, 788, 787, 805, 806, 809, 808
450, 785, 786, 789, 788, 806, 807, 810, 809
451, 787, 788, 791, 790, 808, 809, 812, 811
452, 788, 789, 792, 791, 809, 810, 813, 812
453, 790, 791, 794, 793, 811, 812, 815, 814
454, 791, 792, 795, 794, 812, 813, 816, 815
455, 793, 794, 797, 796, 814, 815, 818, 817
456, 794, 795, 798, 797, 815, 816, 819, 818
457, 799, 800, 803, 802, 820, 821, 824, 823
458, 800, 801, 804, 803, 821, 822, 825, 824
459, 802, 803, 806, 805, 823, 824, 827, 826
460, 803, 804, 807, 806, 824, 825, 828, 827
461, 805, 806, 809, 808, 826, 827, 830, 829
462, 806, 807, 810, 809, 827, 828, 831, 830
463, 808, 809, 812, 811, 829, 830, 833, 832
464, 809, 810, 813, 812, 830, 831, 834, 833
465, 811, 812, 815, 814, 832, 833, 836, 835
466, 812, 813, 816, 815, 833, 834, 837, 836
467, 814, 815, 818, 817, 835, 836, 839, 838
468, 815, 816, 819, 818, 836, 837, 840, 839
469, 820, 821, 824, 823, 841, 842, 845, 844
470, 821, 822, 825, 824, 842, 843, 846, 845
471, 823, 824, 827, 826, 844, 845, 848, 847
472, 824, 825, 828, 827, 845, 846, 849, 848
473, 826, 827, 830, 829, 847, 848, 851, 850
474, 827, 828, 831, 830, 848, 849, 852, 851
475, 829, 830, 833, 832, 850, 851, 854, 853
476, 830, 831, 834, 833, 851, 852, 855, 854
477, 832, 833, 836, 835, 853, 854, 857, 856
478, 833, 834, 837, 836, 854, 855, 858, 857
479, 835, 836, 839, 838, 856, 857, 860, 859
480, 836, 837, 840, 839, 857, 858, 861, 860
481, 841, 842, 845, 844, 862, 863, 866, 865
482, 842, 843, 846, 845, 863, 864, 867, 866
483, 844, 845, 848, 847, 865, 866, 869, 868
484, 845, 846, 849, 848, 866, 867, 870, 869
485, 847, 848, 851, 850, 868, 869, 872, 871
486, 848, 849, 852, 851, 869, 870, 873, 872
487, 850, 851, 854, 853, 871, 872, 875, 874
488, 851, 852, 855, 854, 872, 873, 876, 875
489, 853, 854, 857, 856, 874, 875, 878, 877
490, 854, 855, 858, 857, 875, 876, 879, 878
491, 856, 857, 860, 859, 877, 878, 881, 880
492, 857, 858, 861, 860, 878, 879, 882, 881
493, 862, 863, 866, 865, 883, 884, 887, 886
494, 863, 864, 867, 866, 884, 885, 888, 887
495, 865, 866, 869, 868, 886, 887, 890, 889
496, 866, 867, 870, 869, 887, 888, 891, 890
497, 868, 869, 872, 871, 889, 890, 893, 892
498, 869, 870, 873, 872, 890, 891, 894, 893
499, 871, 872, 875, 874, 892, 893, 896, 895
500, 872, 873, 876, 875, 893, 894, 897, 896
501, 874, 875, 878, 877, 895, 896, 899, 898
502, 875, 876, 879, 878, 896, 897, 900, 899
503, 877, 878, 881, 880, 898, 899, 902, 901
504, 878, 879, 882, 881, 899, 900, 903, 902
505, 883, 884, 887, 886, 904, 905, 908, 907
506, 884, 885, 888, 887, 905, 906, 909, 908
507, 886, 887, 890, 889, 907, 908, 911, 910
508, 887, 888, 891, 890, 908, 909, 912, 911
509, 889, 890, 893, 892, 910, 911, 914, 913
510, 890, 891, 894, 893, 911, 912, 915, 914
511, 892, 893, 896, 895, 913, 914, 917, 916
512, 893, 894, 897, 896, 914, 915, 918, 917
513, 895, 896, 899, 898, 916, 917, 920, 919
514, 896, 897, 900, 899, 917, 918, 921, 920
515, 898, 899, 902, 901, 919, 920, 923, 922
516, 899, 900, 903, 902, 920, 921, 924, 923
517, 904, 905, 908, 907, 925, 926, 929, 928
518, 905, 906, 909, 908, 926, 927, 930, 929
519, 907, 908, 911, 910, 928, 929, 932, 931
520, 908, 909, 912, 911, 929, 930, 933, 932
521, 910, 911, 914, 913, 931, 932, 935, 934
522, 911, 912, 915, 914, 932, 933, 936, 935
523, 913, 914, 917, 916, 934, 935, 938, 937
524, 914, 915, 918, 917, 935, 936, 939, 938
525, 916, 917, 920, 919, 937, 938, 941, 940
526, 917, 918, 921, 920, 938, 939, 942, 941
527, 919, 920, 923, 922, 940, 941, 944, 943
528, 920, 921, 924, 923, 941, 942, 945, 944
529, 925, 926, 929, 928, 946, 947, 950, 949
530, 926, 927, 930, 929, 947, 948, 951, 950
531, 928, 929, 932, 931, 949, 950, 953, 952
532, 929, 930, 933, 932, 950, 951, 954, 953
533, 931, 932, 935, 934, 952, 953, 956, 955
534, 932, 933, 936, 935, 953, 954, 957, 956
535, 934, 935, 938, 937, 955, 956, 959, 958
536, 935, 936, 939, 938, 956, 957, 960, 959
537, 937, 938, 941, 940, 958, 959, 962, 961
538, 938, 939, 942, 941, 959, 960, 963, 962
539, 940, 941, 944, 943, 961, 962, 965, 964
540, 941, 942, 945, 944, 962, 963, 966, 965
541, 946, 947, 950, 949, 967, 968, 971, 970
542, 947, 948, 951, 950, 968, 969, 972, 971
543, 949, 950, 953, 952, 970, 971, 974, 973
544, 950, 951, 954, 953, 971, 972, 975, 974
545, 952, 953, 956, 955, 973, 974, 977, 976
546, 953, 954, 957, 956, 974, 975, 978, 977
547, 955, 956, 959, 958, 976, 977, 980, 979
548, 956, 957, 960, 959, 977, 978, 981, 980
549, 958, 959, 962, 961, 979, 980, 983, 982
550, 959, 960, 963, 962, 980, 981, 984, 983
551, 961, 962, 965, 964, 982, 983, 986, 985
552, 962, 963, 966, 965, 983, 984, 987, 986
553, 967, 968, 971, 970, 988, 989, 992, 991
554, 968, 969, 972, 971, 989, 990, 993, 992
555, 970, 971, 974, 973, 991, 992, 995, 994
556, 971, 972, 975, 974, 992, 993, 996, 995
557, 973, 974, 977, 976, 994, 995, 998, 997
558, 974, 975, 978, 977, 995, 996, 999, 998
559, 976, 977, 980, 979, 997, 998, 1001, 1000
560, 977, 978, 981, 980, 998, 999, 1002, 1001
561, 979, 980, 983, 982, 1000, 1001, 1004, 1003
562, 980, 981, 984, 983, 1001, 1002, 1005, 1004
563, 982, 983, 986, 985, 1003, 1004, 1007, 1006
564, 983, 984, 987, 986, 1004, 1005, 1008, 1007
565, 988, 989, 992, 991, 1009, 1010, 1013, 1012
566, 989, 990, 993, 992, 1010, 1011, 1014, 1013
567, 991, 992, 995, 994, 1012, 1013, 1016, 1015
568, 992, 993, 996, 995, 1013, 1014, 1017, 1016
569, 994, 995, 998, 997, 1015, 1016, 1019, 1018
570, 995, 996, 999, 998, 1016, 1017, 1020, 1019
571, 997, 998, 1001, 1000, 1018, 1019, 1022, 1021
572, 998, 999, 1002, 1001, 1019, 1020, 1023, 1022
573, 1000, 1001, 1004, 1003, 1021, 1022, 1025, 1024
574, 1001, 1002, 1005, 1004, 1022, 1023, 1026, 1025
575, 1003, 1004, 1007, 1006, 1024, 1025, 1028, 1027
576, 1004, 1005, 1008, 1007, 1025, 1026, 1029, 1028
577, 1009, 1010, 1013, 1012, 1030, 1031, 1034, 1033
578, 1010, 1011, 1014, 1013, 1031, 1032, 1035, 1034
579, 1012, 1013, 1016, 1015, 1033, 1034, 1037, 1036
580, 1013, 1014, 1017, 1016, 1034, 1035, 1038, 1037
581, 1015, 1016, 1019, 1018, 1036, 1037, 1040, 1039
582, 1016, 1017, 1020, 1019, 1037, 1038, 1041, 1040
583, 1018, 1019, 1022, 1021, 1039, 1040, 1043, 1042
584, 1019, 1020, 1023, 1022, 1040, 1041, 1044, 1043
585, 1021, 1022, 1025, 1024, 1042, 1043, 1046, 1045
586, 1022, 1023, 1026, 1025, 1043, 1044, 1047, 1046
587, 1024, 1025, 1028, 1027, 1045, 1046, 1049, 1048
588, 1025, 1026, 1029, 1028, 1046, 1047, 1050, 1049
589, 1030, 1031, 1034, 1033, 1051, 1052, 1055, 1054
590, 1031, 1032, 1035, 1034, 1052, 1053, 1056, 1055
591, 1033, 1034, 1037, 1036, 1054, 1055, 1058, 1057
592, 1034, 1035, 1038, 1037, 1055, 1056, 1059, 1058
593, 1036, 1037, 1040, 1039, 1057, 1058, 1061, 1060
594, 1037, 1038, 1041, 1040, 1058, 1059, 1062, 1061
595, 1039, 1040, 1043, 1042, 1060, 1061, 1064, 1063
596, 1040, 1041, 1044, 1043, 1061, 1062, 1065, 1064
597, 1042, 1043, 1046, 1045, 1063, 1064, 1067, 1066
598, 1043, 1044, 1047, 1046, 1064, 1065, 1068, 1067
599, 1045, 1046, 1049, 1048, 1066, 1067, 1070, 1069
600, 1046, 1047, 1050, 1049, 1067, 1068, 1071, 1070
601, 1051, 1052, 1055, 1054, 1072, 1073, 1076, 1075
602, 1052, 1053, 1056, 1055, 1073, 1074, 1077, 1076
603, 1054, 1055, 1058, 1057, 1075, 1076, 1079, 1078
604, 1055, 1056, 1059, 1058, 1076, 1077, 1080, 1079
605, 1057, 1058, 1061, 1060, 1078, 1079, 1082, 1081
606, 1058, 1059, 1062, 1061, 1079, 1080, 1083, 1082
607, 1060, 1061, 1064, 1063, 1081, 1082, 1085, 1084
608, 1061, 1062, 1065, 1064, 1082, 1083, 1086, 1085
609, 1063, 1064, 1067, 1066, 1084, 1085, 1088, 1087
610, 1064, 1065, 1068, 1067, 1085, 1086, 1089, 1088
611, 1066, 1067, 1070, 1069, 1087, 1088, 1091, 1090
612, 1067, 1068, 1071, 1070, 1088, 1089, 1092, 1091
613, 1072, 1073, 1076, 1075, 1093, 1094, 1097, 1096
614, 1073, 1074, 1077, 1076, 1094, 1095, 1098, 1097
615, 1075, 1076, 1079, 1078, 1096, 1097, 1100, 1099
616, 1076, 1077, 1080, 1079, 1097, 1098, 1101, 1100
617, 1078, 1079, 1082, 1081, 1099, 1100, 1103, 1102
618, 1079, 1080, 1083, 1082, 1100, 1101, 1104, 1103
619, 1081, 1082, 1085, 1084, 1102, 1103, 1106, 1105
620, 1082, 1083, 1086, 1085, 1103, 1104, 1107, 1106
621, 1084, 1085, 1088, 1087, 1105, 1106, 1109, 1108
622, 1085, 1086, 1089, 1088, 1106, 1107, 1110, 1109
623, 1087, 1088, 1091, 1090, 1108, 1109, 1112, 1111
624, 1088, 1089, 1092, 1091, 1109, 1110, 1113, 1112
625, 1093, 1094, 1097, 1096, 1114, 1115, 1118, 1117
626, 1094, 1095, 1098, 1097, 1115, 1116, 1119, 1118
627, 1096, 1097, 1100, 1099, 1117, 1118, 1121, 1120
628, 1097, 1098, 1101, 1100, 1118, 1119, 1122, 1121
629, 1099, 1100, 1103, 1102, 1120, 1121, 1124, 1123
630, 1100, 1101, 1104, 1103, 1121, 1122, 1125, 1124
631, 1102, 1103, 1106, 1105, 1123, 1124, 1127, 1126
632, 1103, 1104, 1107, 1106, 1124, 1125, 1128, 1127
633, 1105, 1106, 1109, 1108, 1126, 1127, 1130, 1129
634, 1106, 1107, 1110, 1109, 1127, 1128, 1131, 1130
635, 1108, 1109, 1112, 1111, 1129, 1130, 1133, 1132
636, 1109, 1110, 1113, 1112, 1130, 1131, 1134, 1133
637, 1114, 1115, 1118, 1117, 1135, 1136, 1139, 1138
638, 1115, 1116, 1119, 1118, 1136, 1137, 1140, 1139
639, 1117, 1118, 1121, 1120, 1138, 1139, 1142, 1141
640, 1118, 1119, 1122, 1121, 1139, 1140, 1143, 1142
641, 1120, 1121, 1124, 1123, 1141, 1142, 1145, 1144
642, 1121, 1122, 1125, 1124, 1142, 1143, 1146, 1145
643, 1123, 1124, 1127, 1126, 1144, 1145, 1148, 1147
644, 1124, 1125, 1128, 1127, 1145, 1146, 1149, 1148
645, 1126, 1127, 1130, 1129, 1147, 1148, 1151, 1150
646, 1127, 1128, 1131, 1130, 1148, 1149, 1152, 1151
647, 1129, 1130, 1133, 1132, 1150, 1151, 1154, 1153
648, 1130, 1131, 1134, 1133, 1151, 1152, 1155, 1154
649, 1135, 1136, 1139, 1138, 1156, 1157, 1160, 1159
650, 1136, 1137, 1140, 1139, 1157, 1158, 1161, 1160
651, 1138, 1139, 1142, 1141, 1159, 1160, 1163, 1162
652, 1139, 1140, 1143, 1142, 1160, 1161, 1164, 1163
653, 1141, 1142, 1145, 1144, 1162, 1163, 1166, 1165
654, 1142, 1143, 1146, 1145, 1163, 1164, 1167, 1166
655, 1144, 1145, 1148, 1147, 1165, 1166, 1169, 1168
656, 1145, 1146, 1149, 1148, 1166, 1167, 1170, 1169
657, 1147, 1148, 1151, 1150, 1168, 1169, 1172, 1171
658, 1148, 1149, 1152, 1151, 1169, 1170, 1173, 1172
659, 1150, 1151, 1154, 1153, 1171, 1172, 1175, 1174
660, 1151, 1152, 1155, 1154, 1172, 1173, 1176, 1175
661, 1156, 1157, 1160, 1159, 1177, 1178, 1181, 1180
662, 1157, 1158, 1161, 1160, 1178, 1179, 1182, 1181
663, 1159, 1160, 1163, 1162, 1180, 1181, 1184, 1183
664, 1160, 1161, 1164, 1163, 1181, 1182, 1185, 1184
665, 1162, 1163, 1166, 1165, 1183, 1184, 1187, 1186
666, 1163, 1164, 1167, 1166, 1184, 1185, 1188, 1187
667, 1165, 1166, 1169, 1168, 1186, 1187, 1190, 1189
668, 1166, 1167, 1170, 1169, 1187, 1188, 1191, 1190
669, 1168, 1169, 1172, 1171, 1189, 1190, 1193, 1192
670, 1169, 1170, 1173, 1172, 1190, 1191, 1194, 1193
671, 1171, 1172, 1175, 1174, 1192, 1193, 1196, 1195
672, 1172, 1173, 1176, 1175, 1193, 1194, 1197, 1196
*NSET, NSET=BOTTOM
1, 2, 3, 4, 5, 6, 7, 8, 9, 10, 11, 12
13, 14, 15, 16, 17, 18, 19, 20, 21
*NSET, NSET=TOP
1177, 1178, 1179, 1180, 1181, 1182, 1183, 1184, 1185, 1186, 1187, 1188
1189, 1190, 1191, 1192, 1193, 1194, 1195, 1196, 1197
*NSET, NSET=GAUGE_MID
589, 590, 591, 592, 593, 594, 595, 596, 597, 598, 599, 600
601, 602, 603, 604, 605, 606, 607, 608, 609
*NSET, NSET=ALLN, GENERATE
1, 1197, 1
*ELSET, ELSET=GAUGE, GENERATE
181, 492, 1
*SOLID SECTION, ELSET=ALLEL, MATERIAL=POLYUREA_RNO
,
*END PART
*MATERIAL, NAME=POLYUREA_RNO
*DENSITY
1120.0,
*SPECIFIC HEAT
1500.0,
*CONDUCTIVITY
0.19,
**  USER MATERIAL constants: E_eff, nu_eff (stable-dt estimate only),
**  T_ref, n_xi, beta_TQ, rho, cp, flag_transfer_learning_temp
*USER MATERIAL, CONSTANTS=8
2.8200e+09, 0.286, 300.0, 25, 0.9, 1120.0, 1500.0, 0
*INELASTIC HEAT FRACTION
0.9,
*DEPVAR
40
*ASSEMBLY, NAME=ASM
*INSTANCE, NAME=DB, PART=DOGBONE
*END INSTANCE
*NODE, NSET=RP_TOP
900001, 0.0005, 0.0, 0.040
*NODE, NSET=RP_BOT
900002, 0.0005, 0.0, 0.0
** distributing couplings tie each end face to its reference point (Sec. 4.1)
*SURFACE, TYPE=NODE, NAME=TOP_NS
DB.TOP,
*SURFACE, TYPE=NODE, NAME=BOT_NS
DB.BOTTOM,
*COUPLING, CONSTRAINT NAME=CPL_TOP, REF NODE=900001, SURFACE=TOP_NS
*DISTRIBUTING
*COUPLING, CONSTRAINT NAME=CPL_BOT, REF NODE=900002, SURFACE=BOT_NS
*DISTRIBUTING
*END ASSEMBLY
*INITIAL CONDITIONS, TYPE=TEMPERATURE
DB.ALLN, 300.0
** amplitude: 3 sinusoidal cycles, period 20 us, 2 us cosine ramp (Fig. 7)
*AMPLITUDE, NAME=SINE3, DEFINITION=TABULAR
0.000e+00, 0.00000, 2.500e-07, 0.00299, 5.000e-07, 0.02291, 7.500e-07, 0.07205
1.000e-06, 0.15451, 1.250e-06, 0.26457, 1.500e-06, 0.38751, 1.750e-06, 0.50261
2.000e-06, 0.58779, 2.250e-06, 0.64945, 2.500e-06, 0.70711, 2.750e-06, 0.76041
3.000e-06, 0.80902, 3.250e-06, 0.85264, 3.500e-06, 0.89101, 3.750e-06, 0.92388
4.000e-06, 0.95106, 4.250e-06, 0.97237, 4.500e-06, 0.98769, 4.750e-06, 0.99692
5.000e-06, 1.00000, 5.250e-06, 0.99692, 5.500e-06, 0.98769, 5.750e-06, 0.97237
6.000e-06, 0.95106, 6.250e-06, 0.92388, 6.500e-06, 0.89101, 6.750e-06, 0.85264
7.000e-06, 0.80902, 7.250e-06, 0.76041, 7.500e-06, 0.70711, 7.750e-06, 0.64945
8.000e-06, 0.58779, 8.250e-06, 0.52250, 8.500e-06, 0.45399, 8.750e-06, 0.38268
9.000e-06, 0.30902, 9.250e-06, 0.23345, 9.500e-06, 0.15643, 9.750e-06, 0.07846
1.000e-05, 0.00000, 1.025e-05, -0.07846, 1.050e-05, -0.15643, 1.075e-05, -0.23345
1.100e-05, -0.30902, 1.125e-05, -0.38268, 1.150e-05, -0.45399, 1.175e-05, -0.52250
1.200e-05, -0.58779, 1.225e-05, -0.64945, 1.250e-05, -0.70711, 1.275e-05, -0.76041
1.300e-05, -0.80902, 1.325e-05, -0.85264, 1.350e-05, -0.89101, 1.375e-05, -0.92388
1.400e-05, -0.95106, 1.425e-05, -0.97237, 1.450e-05, -0.98769, 1.475e-05, -0.99692
1.500e-05, -1.00000, 1.525e-05, -0.99692, 1.550e-05, -0.98769, 1.575e-05, -0.97237
1.600e-05, -0.95106, 1.625e-05, -0.92388, 1.650e-05, -0.89101, 1.675e-05, -0.85264
1.700e-05, -0.80902, 1.725e-05, -0.76041, 1.750e-05, -0.70711, 1.775e-05, -0.64945
1.800e-05, -0.58779, 1.825e-05, -0.52250, 1.850e-05, -0.45399, 1.875e-05, -0.38268
1.900e-05, -0.30902, 1.925e-05, -0.23345, 1.950e-05, -0.15643, 1.975e-05, -0.07846
2.000e-05, -0.00000, 2.025e-05, 0.07846, 2.050e-05, 0.15643, 2.075e-05, 0.23345
2.100e-05, 0.30902, 2.125e-05, 0.38268, 2.150e-05, 0.45399, 2.175e-05, 0.52250
2.200e-05, 0.58779, 2.225e-05, 0.64945, 2.250e-05, 0.70711, 2.275e-05, 0.76041
2.300e-05, 0.80902, 2.325e-05, 0.85264, 2.350e-05, 0.89101, 2.375e-05, 0.92388
2.400e-05, 0.95106, 2.425e-05, 0.97237, 2.450e-05, 0.98769, 2.475e-05, 0.99692
2.500e-05, 1.00000, 2.525e-05, 0.99692, 2.550e-05, 0.98769, 2.575e-05, 0.97237
2.600e-05, 0.95106, 2.625e-05, 0.92388, 2.650e-05, 0.89101, 2.675e-05, 0.85264
2.700e-05, 0.80902, 2.725e-05, 0.76041, 2.750e-05, 0.70711, 2.775e-05, 0.64945
2.800e-05, 0.58779, 2.825e-05, 0.52250, 2.850e-05, 0.45399, 2.875e-05, 0.38268
2.900e-05, 0.30902, 2.925e-05, 0.23345, 2.950e-05, 0.15643, 2.975e-05, 0.07846
3.000e-05, 0.00000, 3.025e-05, -0.07846, 3.050e-05, -0.15643, 3.075e-05, -0.23345
3.100e-05, -0.30902, 3.125e-05, -0.38268, 3.150e-05, -0.45399, 3.175e-05, -0.52250
3.200e-05, -0.58779, 3.225e-05, -0.64945, 3.250e-05, -0.70711, 3.275e-05, -0.76041
3.300e-05, -0.80902, 3.325e-05, -0.85264, 3.350e-05, -0.89101, 3.375e-05, -0.92388
3.400e-05, -0.95106, 3.425e-05, -0.97237, 3.450e-05, -0.98769, 3.475e-05, -0.99692
3.500e-05, -1.00000, 3.525e-05, -0.99692, 3.550e-05, -0.98769, 3.575e-05, -0.97237
3.600e-05, -0.95106, 3.625e-05, -0.92388, 3.650e-05, -0.89101, 3.675e-05, -0.85264
3.700e-05, -0.80902, 3.725e-05, -0.76041, 3.750e-05, -0.70711, 3.775e-05, -0.64945
3.800e-05, -0.58779, 3.825e-05, -0.52250, 3.850e-05, -0.45399, 3.875e-05, -0.38268
3.900e-05, -0.30902, 3.925e-05, -0.23345, 3.950e-05, -0.15643, 3.975e-05, -0.07846
4.000e-05, -0.00000, 4.025e-05, 0.07846, 4.050e-05, 0.15643, 4.075e-05, 0.23345
4.100e-05, 0.30902, 4.125e-05, 0.38268, 4.150e-05, 0.45399, 4.175e-05, 0.52250
4.200e-05, 0.58779, 4.225e-05, 0.64945, 4.250e-05, 0.70711, 4.275e-05, 0.76041
4.300e-05, 0.80902, 4.325e-05, 0.85264, 4.350e-05, 0.89101, 4.375e-05, 0.92388
4.400e-05, 0.95106, 4.425e-05, 0.97237, 4.450e-05, 0.98769, 4.475e-05, 0.99692
4.500e-05, 1.00000, 4.525e-05, 0.99692, 4.550e-05, 0.98769, 4.575e-05, 0.97237
4.600e-05, 0.95106, 4.625e-05, 0.92388, 4.650e-05, 0.89101, 4.675e-05, 0.85264
4.700e-05, 0.80902, 4.725e-05, 0.76041, 4.750e-05, 0.70711, 4.775e-05, 0.64945
4.800e-05, 0.58779, 4.825e-05, 0.52250, 4.850e-05, 0.45399, 4.875e-05, 0.38268
4.900e-05, 0.30902, 4.925e-05, 0.23345, 4.950e-05, 0.15643, 4.975e-05, 0.07846
5.000e-05, 0.00000, 5.025e-05, -0.07846, 5.050e-05, -0.15643, 5.075e-05, -0.23345
5.100e-05, -0.30902, 5.125e-05, -0.38268, 5.150e-05, -0.45399, 5.175e-05, -0.52250
5.200e-05, -0.58779, 5.225e-05, -0.64945, 5.250e-05, -0.70711, 5.275e-05, -0.76041
5.300e-05, -0.80902, 5.325e-05, -0.85264, 5.350e-05, -0.89101, 5.375e-05, -0.92388
5.400e-05, -0.95106, 5.425e-05, -0.97237, 5.450e-05, -0.98769, 5.475e-05, -0.99692
5.500e-05, -1.00000, 5.525e-05, -0.99692, 5.550e-05, -0.98769, 5.575e-05, -0.97237
5.600e-05, -0.95106, 5.625e-05, -0.92388, 5.650e-05, -0.89101, 5.675e-05, -0.85264
5.700e-05, -0.80902, 5.725e-05, -0.76041, 5.750e-05, -0.70711, 5.775e-05, -0.64945
5.800e-05, -0.58779, 5.825e-05, -0.52250, 5.850e-05, -0.45399, 5.875e-05, -0.38268
5.900e-05, -0.30902, 5.925e-05, -0.23345, 5.950e-05, -0.15643, 5.975e-05, -0.07846
6.000e-05, -0.00000
*BOUNDARY
900002, 1, 6, 0.0
900001, 1, 2, 0.0
900001, 4, 6, 0.0
*STEP, NAME=CYCLIC, NLGEOM=YES
*DYNAMIC TEMPERATURE-DISPLACEMENT, EXPLICIT
, 6.0E-05
*BULK VISCOSITY
0.06, 1.2
*BOUNDARY, AMPLITUDE=SINE3
900001, 3, 3, 2.0000e-05
*OUTPUT, FIELD, NUMBER INTERVAL=60
*NODE OUTPUT
U, V, NT
*ELEMENT OUTPUT, ELSET=DB.ALLEL
S, LE, SDV, TEMP
*OUTPUT, HISTORY, TIME INTERVAL=1.0E-7
*NODE OUTPUT, NSET=RP_TOP
U3, RF3
*ENERGY OUTPUT
ALLWK, ALLIE, ALLPD, ALLSE, ALLKE
*END STEP
