*Heading
** Reconstructed paper-consistent plate impact RNO model
** SI units: m, kg, s, Pa, K
** Plate: 40 x 40 x 10 mm; projectile: 10 x 10 x 20 mm at -20 m/s.
** Opposite (z=0) face fully clamped; impact surface is z=10 mm.
*Preprint, echo=NO, model=NO, history=NO, contact=NO
*Part, name=PLATE
*Node
1, -2.000000000000e-02, -2.000000000000e-02, 0.000000000000e+00
2, -1.885714285714e-02, -2.000000000000e-02, 0.000000000000e+00
3, -1.771428571429e-02, -2.000000000000e-02, 0.000000000000e+00
4, -1.657142857143e-02, -2.000000000000e-02, 0.000000000000e+00
5, -1.542857142857e-02, -2.000000000000e-02, 0.000000000000e+00
6, -1.428571428571e-02, -2.000000000000e-02, 0.000000000000e+00
7, -1.314285714286e-02, -2.000000000000e-02, 0.000000000000e+00
8, -1.200000000000e-02, -2.000000000000e-02, 0.000000000000e+00
9, -1.085714285714e-02, -2.000000000000e-02, 0.000000000000e+00
10, -9.714285714286e-03, -2.000000000000e-02, 0.000000000000e+00
11, -8.571428571429e-03, -2.000000000000e-02, 0.000000000000e+00
12, -7.428571428571e-03, -2.000000000000e-02, 0.000000000000e+00
13, -6.285714285714e-03, -2.000000000000e-02, 0.000000000000e+00
14, -5.142857142857e-03, -2.000000000000e-02, 0.000000000000e+00
15, -4.000000000000e-03, -2.000000000000e-02, 0.000000000000e+00
16, -2.857142857143e-03, -2.000000000000e-02, 0.000000000000e+00
17, -1.714285714286e-03, -2.000000000000e-02, 0.000000000000e+00
18, -5.714285714286e-04, -2.000000000000e-02, 0.000000000000e+00
19, 5.714285714286e-04, -2.000000000000e-02, 0.000000000000e+00
20, 1.714285714286e-03, -2.000000000000e-02, 0.000000000000e+00
21, 2.857142857143e-03, -2.000000000000e-02, 0.000000000000e+00
22, 4.000000000000e-03, -2.000000000000e-02, 0.000000000000e+00
23, 5.142857142857e-03, -2.000000000000e-02, 0.000000000000e+00
24, 6.285714285714e-03, -2.000000000000e-02, 0.000000000000e+00
25, 7.428571428571e-03, -2.000000000000e-02, 0.000000000000e+00
26, 8.571428571429e-03, -2.000000000000e-02, 0.000000000000e+00
27, 9.714285714286e-03, -2.000000000000e-02, 0.000000000000e+00
28, 1.085714285714e-02, -2.000000000000e-02, 0.000000000000e+00
29, 1.200000000000e-02, -2.000000000000e-02, 0.000000000000e+00
30, 1.314285714286e-02, -2.000000000000e-02, 0.000000000000e+00
31, 1.428571428571e-02, -2.000000000000e-02, 0.000000000000e+00
32, 1.542857142857e-02, -2.000000000000e-02, 0.000000000000e+00
33, 1.657142857143e-02, -2.000000000000e-02, 0.000000000000e+00
34, 1.771428571429e-02, -2.000000000000e-02, 0.000000000000e+00
35, 1.885714285714e-02, -2.000000000000e-02, 0.000000000000e+00
36, 2.000000000000e-02, -2.000000000000e-02, 0.000000000000e+00
37, -2.000000000000e-02, -1.692307692308e-02, 0.000000000000e+00
38, -1.885714285714e-02, -1.692307692308e-02, 0.000000000000e+00
39, -1.771428571429e-02, -1.692307692308e-02, 0.000000000000e+00
40, -1.657142857143e-02, -1.692307692308e-02, 0.000000000000e+00
41, -1.542857142857e-02, -1.692307692308e-02, 0.000000000000e+00
42, -1.428571428571e-02, -1.692307692308e-02, 0.000000000000e+00
43, -1.314285714286e-02, -1.692307692308e-02, 0.000000000000e+00
44, -1.200000000000e-02, -1.692307692308e-02, 0.000000000000e+00
45, -1.085714285714e-02, -1.692307692308e-02, 0.000000000000e+00
46, -9.714285714286e-03, -1.692307692308e-02, 0.000000000000e+00
47, -8.571428571429e-03, -1.692307692308e-02, 0.000000000000e+00
48, -7.428571428571e-03, -1.692307692308e-02, 0.000000000000e+00
49, -6.285714285714e-03, -1.692307692308e-02, 0.000000000000e+00
50, -5.142857142857e-03, -1.692307692308e-02, 0.000000000000e+00
51, -4.000000000000e-03, -1.692307692308e-02, 0.000000000000e+00
52, -2.857142857143e-03, -1.692307692308e-02, 0.000000000000e+00
53, -1.714285714286e-03, -1.692307692308e-02, 0.000000000000e+00
54, -5.714285714286e-04, -1.692307692308e-02, 0.000000000000e+00
55, 5.714285714286e-04, -1.692307692308e-02, 0.000000000000e+00
56, 1.714285714286e-03, -1.692307692308e-02, 0.000000000000e+00
57, 2.857142857143e-03, -1.692307692308e-02, 0.000000000000e+00
58, 4.000000000000e-03, -1.692307692308e-02, 0.000000000000e+00
59, 5.142857142857e-03, -1.692307692308e-02, 0.000000000000e+00
60, 6.285714285714e-03, -1.692307692308e-02, 0.000000000000e+00
61, 7.428571428571e-03, -1.692307692308e-02, 0.000000000000e+00
62, 8.571428571429e-03, -1.692307692308e-02, 0.000000000000e+00
63, 9.714285714286e-03, -1.692307692308e-02, 0.000000000000e+00
64, 1.085714285714e-02, -1.692307692308e-02, 0.000000000000e+00
65, 1.200000000000e-02, -1.692307692308e-02, 0.000000000000e+00
66, 1.314285714286e-02, -1.692307692308e-02, 0.000000000000e+00
67, 1.428571428571e-02, -1.692307692308e-02, 0.000000000000e+00
68, 1.542857142857e-02, -1.692307692308e-02, 0.000000000000e+00
69, 1.657142857143e-02, -1.692307692308e-02, 0.000000000000e+00
70, 1.771428571429e-02, -1.692307692308e-02, 0.000000000000e+00
71, 1.885714285714e-02, -1.692307692308e-02, 0.000000000000e+00
72, 2.000000000000e-02, -1.692307692308e-02, 0.000000000000e+00
73, -2.000000000000e-02, -1.384615384615e-02, 0.000000000000e+00
74, -1.885714285714e-02, -1.384615384615e-02, 0.000000000000e+00
75, -1.771428571429e-02, -1.384615384615e-02, 0.000000000000e+00
76, -1.657142857143e-02, -1.384615384615e-02, 0.000000000000e+00
77, -1.542857142857e-02, -1.384615384615e-02, 0.000000000000e+00
78, -1.428571428571e-02, -1.384615384615e-02, 0.000000000000e+00
79, -1.314285714286e-02, -1.384615384615e-02, 0.000000000000e+00
80, -1.200000000000e-02, -1.384615384615e-02, 0.000000000000e+00
81, -1.085714285714e-02, -1.384615384615e-02, 0.000000000000e+00
82, -9.714285714286e-03, -1.384615384615e-02, 0.000000000000e+00
83, -8.571428571429e-03, -1.384615384615e-02, 0.000000000000e+00
84, -7.428571428571e-03, -1.384615384615e-02, 0.000000000000e+00
85, -6.285714285714e-03, -1.384615384615e-02, 0.000000000000e+00
86, -5.142857142857e-03, -1.384615384615e-02, 0.000000000000e+00
87, -4.000000000000e-03, -1.384615384615e-02, 0.000000000000e+00
88, -2.857142857143e-03, -1.384615384615e-02, 0.000000000000e+00
89, -1.714285714286e-03, -1.384615384615e-02, 0.000000000000e+00
90, -5.714285714286e-04, -1.384615384615e-02, 0.000000000000e+00
91, 5.714285714286e-04, -1.384615384615e-02, 0.000000000000e+00
92, 1.714285714286e-03, -1.384615384615e-02, 0.000000000000e+00
93, 2.857142857143e-03, -1.384615384615e-02, 0.000000000000e+00
94, 4.000000000000e-03, -1.384615384615e-02, 0.000000000000e+00
95, 5.142857142857e-03, -1.384615384615e-02, 0.000000000000e+00
96, 6.285714285714e-03, -1.384615384615e-02, 0.000000000000e+00
97, 7.428571428571e-03, -1.384615384615e-02, 0.000000000000e+00
98, 8.571428571429e-03, -1.384615384615e-02, 0.000000000000e+00
99, 9.714285714286e-03, -1.384615384615e-02, 0.000000000000e+00
100, 1.085714285714e-02, -1.384615384615e-02, 0.000000000000e+00
101, 1.200000000000e-02, -1.384615384615e-02, 0.000000000000e+00
102, 1.314285714286e-02, -1.384615384615e-02, 0.000000000000e+00
103, 1.428571428571e-02, -1.384615384615e-02, 0.000000000000e+00
104, 1.542857142857e-02, -1.384615384615e-02, 0.000000000000e+00
105, 1.657142857143e-02, -1.384615384615e-02, 0.000000000000e+00
106, 1.771428571429e-02, -1.384615384615e-02, 0.000000000000e+00
107, 1.885714285714e-02, -1.384615384615e-02, 0.000000000000e+00
108, 2.000000000000e-02, -1.384615384615e-02, 0.000000000000e+00
109, -2.000000000000e-02, -1.076923076923e-02, 0.000000000000e+00
110, -1.885714285714e-02, -1.076923076923e-02, 0.000000000000e+00
111, -1.771428571429e-02, -1.076923076923e-02, 0.000000000000e+00
112, -1.657142857143e-02, -1.076923076923e-02, 0.000000000000e+00
113, -1.542857142857e-02, -1.076923076923e-02, 0.000000000000e+00
114, -1.428571428571e-02, -1.076923076923e-02, 0.000000000000e+00
115, -1.314285714286e-02, -1.076923076923e-02, 0.000000000000e+00
116, -1.200000000000e-02, -1.076923076923e-02, 0.000000000000e+00
117, -1.085714285714e-02, -1.076923076923e-02, 0.000000000000e+00
118, -9.714285714286e-03, -1.076923076923e-02, 0.000000000000e+00
119, -8.571428571429e-03, -1.076923076923e-02, 0.000000000000e+00
120, -7.428571428571e-03, -1.076923076923e-02, 0.000000000000e+00
121, -6.285714285714e-03, -1.076923076923e-02, 0.000000000000e+00
122, -5.142857142857e-03, -1.076923076923e-02, 0.000000000000e+00
123, -4.000000000000e-03, -1.076923076923e-02, 0.000000000000e+00
124, -2.857142857143e-03, -1.076923076923e-02, 0.000000000000e+00
125, -1.714285714286e-03, -1.076923076923e-02, 0.000000000000e+00
126, -5.714285714286e-04, -1.076923076923e-02, 0.000000000000e+00
127, 5.714285714286e-04, -1.076923076923e-02, 0.000000000000e+00
128, 1.714285714286e-03, -1.076923076923e-02, 0.000000000000e+00
129, 2.857142857143e-03, -1.076923076923e-02, 0.000000000000e+00
130, 4.000000000000e-03, -1.076923076923e-02, 0.000000000000e+00
131, 5.142857142857e-03, -1.076923076923e-02, 0.000000000000e+00
132, 6.285714285714e-03, -1.076923076923e-02, 0.000000000000e+00
133, 7.428571428571e-03, -1.076923076923e-02, 0.000000000000e+00
134, 8.571428571429e-03, -1.076923076923e-02, 0.000000000000e+00
135, 9.714285714286e-03, -1.076923076923e-02, 0.000000000000e+00
136, 1.085714285714e-02, -1.076923076923e-02, 0.000000000000e+00
137, 1.200000000000e-02, -1.076923076923e-02, 0.000000000000e+00
138, 1.314285714286e-02, -1.076923076923e-02, 0.000000000000e+00
139, 1.428571428571e-02, -1.076923076923e-02, 0.000000000000e+00
140, 1.542857142857e-02, -1.076923076923e-02, 0.000000000000e+00
141, 1.657142857143e-02, -1.076923076923e-02, 0.000000000000e+00
142, 1.771428571429e-02, -1.076923076923e-02, 0.000000000000e+00
143, 1.885714285714e-02, -1.076923076923e-02, 0.000000000000e+00
144, 2.000000000000e-02, -1.076923076923e-02, 0.000000000000e+00
145, -2.000000000000e-02, -7.692307692308e-03, 0.000000000000e+00
146, -1.885714285714e-02, -7.692307692308e-03, 0.000000000000e+00
147, -1.771428571429e-02, -7.692307692308e-03, 0.000000000000e+00
148, -1.657142857143e-02, -7.692307692308e-03, 0.000000000000e+00
149, -1.542857142857e-02, -7.692307692308e-03, 0.000000000000e+00
150, -1.428571428571e-02, -7.692307692308e-03, 0.000000000000e+00
151, -1.314285714286e-02, -7.692307692308e-03, 0.000000000000e+00
152, -1.200000000000e-02, -7.692307692308e-03, 0.000000000000e+00
153, -1.085714285714e-02, -7.692307692308e-03, 0.000000000000e+00
154, -9.714285714286e-03, -7.692307692308e-03, 0.000000000000e+00
155, -8.571428571429e-03, -7.692307692308e-03, 0.000000000000e+00
156, -7.428571428571e-03, -7.692307692308e-03, 0.000000000000e+00
157, -6.285714285714e-03, -7.692307692308e-03, 0.000000000000e+00
158, -5.142857142857e-03, -7.692307692308e-03, 0.000000000000e+00
159, -4.000000000000e-03, -7.692307692308e-03, 0.000000000000e+00
160, -2.857142857143e-03, -7.692307692308e-03, 0.000000000000e+00
161, -1.714285714286e-03, -7.692307692308e-03, 0.000000000000e+00
162, -5.714285714286e-04, -7.692307692308e-03, 0.000000000000e+00
163, 5.714285714286e-04, -7.692307692308e-03, 0.000000000000e+00
164, 1.714285714286e-03, -7.692307692308e-03, 0.000000000000e+00
165, 2.857142857143e-03, -7.692307692308e-03, 0.000000000000e+00
166, 4.000000000000e-03, -7.692307692308e-03, 0.000000000000e+00
167, 5.142857142857e-03, -7.692307692308e-03, 0.000000000000e+00
168, 6.285714285714e-03, -7.692307692308e-03, 0.000000000000e+00
169, 7.428571428571e-03, -7.692307692308e-03, 0.000000000000e+00
170, 8.571428571429e-03, -7.692307692308e-03, 0.000000000000e+00
171, 9.714285714286e-03, -7.692307692308e-03, 0.000000000000e+00
172, 1.085714285714e-02, -7.692307692308e-03, 0.000000000000e+00
173, 1.200000000000e-02, -7.692307692308e-03, 0.000000000000e+00
174, 1.314285714286e-02, -7.692307692308e-03, 0.000000000000e+00
175, 1.428571428571e-02, -7.692307692308e-03, 0.000000000000e+00
176, 1.542857142857e-02, -7.692307692308e-03, 0.000000000000e+00
177, 1.657142857143e-02, -7.692307692308e-03, 0.000000000000e+00
178, 1.771428571429e-02, -7.692307692308e-03, 0.000000000000e+00
179, 1.885714285714e-02, -7.692307692308e-03, 0.000000000000e+00
180, 2.000000000000e-02, -7.692307692308e-03, 0.000000000000e+00
181, -2.000000000000e-02, -4.615384615385e-03, 0.000000000000e+00
182, -1.885714285714e-02, -4.615384615385e-03, 0.000000000000e+00
183, -1.771428571429e-02, -4.615384615385e-03, 0.000000000000e+00
184, -1.657142857143e-02, -4.615384615385e-03, 0.000000000000e+00
185, -1.542857142857e-02, -4.615384615385e-03, 0.000000000000e+00
186, -1.428571428571e-02, -4.615384615385e-03, 0.000000000000e+00
187, -1.314285714286e-02, -4.615384615385e-03, 0.000000000000e+00
188, -1.200000000000e-02, -4.615384615385e-03, 0.000000000000e+00
189, -1.085714285714e-02, -4.615384615385e-03, 0.000000000000e+00
190, -9.714285714286e-03, -4.615384615385e-03, 0.000000000000e+00
191, -8.571428571429e-03, -4.615384615385e-03, 0.000000000000e+00
192, -7.428571428571e-03, -4.615384615385e-03, 0.000000000000e+00
193, -6.285714285714e-03, -4.615384615385e-03, 0.000000000000e+00
194, -5.142857142857e-03, -4.615384615385e-03, 0.000000000000e+00
195, -4.000000000000e-03, -4.615384615385e-03, 0.000000000000e+00
196, -2.857142857143e-03, -4.615384615385e-03, 0.000000000000e+00
197, -1.714285714286e-03, -4.615384615385e-03, 0.000000000000e+00
198, -5.714285714286e-04, -4.615384615385e-03, 0.000000000000e+00
199, 5.714285714286e-04, -4.615384615385e-03, 0.000000000000e+00
200, 1.714285714286e-03, -4.615384615385e-03, 0.000000000000e+00
201, 2.857142857143e-03, -4.615384615385e-03, 0.000000000000e+00
202, 4.000000000000e-03, -4.615384615385e-03, 0.000000000000e+00
203, 5.142857142857e-03, -4.615384615385e-03, 0.000000000000e+00
204, 6.285714285714e-03, -4.615384615385e-03, 0.000000000000e+00
205, 7.428571428571e-03, -4.615384615385e-03, 0.000000000000e+00
206, 8.571428571429e-03, -4.615384615385e-03, 0.000000000000e+00
207, 9.714285714286e-03, -4.615384615385e-03, 0.000000000000e+00
208, 1.085714285714e-02, -4.615384615385e-03, 0.000000000000e+00
209, 1.200000000000e-02, -4.615384615385e-03, 0.000000000000e+00
210, 1.314285714286e-02, -4.615384615385e-03, 0.000000000000e+00
211, 1.428571428571e-02, -4.615384615385e-03, 0.000000000000e+00
212, 1.542857142857e-02, -4.615384615385e-03, 0.000000000000e+00
213, 1.657142857143e-02, -4.615384615385e-03, 0.000000000000e+00
214, 1.771428571429e-02, -4.615384615385e-03, 0.000000000000e+00
215, 1.885714285714e-02, -4.615384615385e-03, 0.000000000000e+00
216, 2.000000000000e-02, -4.615384615385e-03, 0.000000000000e+00
217, -2.000000000000e-02, -1.538461538462e-03, 0.000000000000e+00
218, -1.885714285714e-02, -1.538461538462e-03, 0.000000000000e+00
219, -1.771428571429e-02, -1.538461538462e-03, 0.000000000000e+00
220, -1.657142857143e-02, -1.538461538462e-03, 0.000000000000e+00
221, -1.542857142857e-02, -1.538461538462e-03, 0.000000000000e+00
222, -1.428571428571e-02, -1.538461538462e-03, 0.000000000000e+00
223, -1.314285714286e-02, -1.538461538462e-03, 0.000000000000e+00
224, -1.200000000000e-02, -1.538461538462e-03, 0.000000000000e+00
225, -1.085714285714e-02, -1.538461538462e-03, 0.000000000000e+00
226, -9.714285714286e-03, -1.538461538462e-03, 0.000000000000e+00
227, -8.571428571429e-03, -1.538461538462e-03, 0.000000000000e+00
228, -7.428571428571e-03, -1.538461538462e-03, 0.000000000000e+00
229, -6.285714285714e-03, -1.538461538462e-03, 0.000000000000e+00
230, -5.142857142857e-03, -1.538461538462e-03, 0.000000000000e+00
231, -4.000000000000e-03, -1.538461538462e-03, 0.000000000000e+00
232, -2.857142857143e-03, -1.538461538462e-03, 0.000000000000e+00
233, -1.714285714286e-03, -1.538461538462e-03, 0.000000000000e+00
234, -5.714285714286e-04, -1.538461538462e-03, 0.000000000000e+00
235, 5.714285714286e-04, -1.538461538462e-03, 0.000000000000e+00
236, 1.714285714286e-03, -1.538461538462e-03, 0.000000000000e+00
237, 2.857142857143e-03, -1.538461538462e-03, 0.000000000000e+00
238, 4.000000000000e-03, -1.538461538462e-03, 0.000000000000e+00
239, 5.142857142857e-03, -1.538461538462e-03, 0.000000000000e+00
240, 6.285714285714e-03, -1.538461538462e-03, 0.000000000000e+00
241, 7.428571428571e-03, -1.538461538462e-03, 0.000000000000e+00
242, 8.571428571429e-03, -1.538461538462e-03, 0.000000000000e+00
243, 9.714285714286e-03, -1.538461538462e-03, 0.000000000000e+00
244, 1.085714285714e-02, -1.538461538462e-03, 0.000000000000e+00
245, 1.200000000000e-02, -1.538461538462e-03, 0.000000000000e+00
246, 1.314285714286e-02, -1.538461538462e-03, 0.000000000000e+00
247, 1.428571428571e-02, -1.538461538462e-03, 0.000000000000e+00
248, 1.542857142857e-02, -1.538461538462e-03, 0.000000000000e+00
249, 1.657142857143e-02, -1.538461538462e-03, 0.000000000000e+00
250, 1.771428571429e-02, -1.538461538462e-03, 0.000000000000e+00
251, 1.885714285714e-02, -1.538461538462e-03, 0.000000000000e+00
252, 2.000000000000e-02, -1.538461538462e-03, 0.000000000000e+00
253, -2.000000000000e-02, 1.538461538462e-03, 0.000000000000e+00
254, -1.885714285714e-02, 1.538461538462e-03, 0.000000000000e+00
255, -1.771428571429e-02, 1.538461538462e-03, 0.000000000000e+00
256, -1.657142857143e-02, 1.538461538462e-03, 0.000000000000e+00
257, -1.542857142857e-02, 1.538461538462e-03, 0.000000000000e+00
258, -1.428571428571e-02, 1.538461538462e-03, 0.000000000000e+00
259, -1.314285714286e-02, 1.538461538462e-03, 0.000000000000e+00
260, -1.200000000000e-02, 1.538461538462e-03, 0.000000000000e+00
261, -1.085714285714e-02, 1.538461538462e-03, 0.000000000000e+00
262, -9.714285714286e-03, 1.538461538462e-03, 0.000000000000e+00
263, -8.571428571429e-03, 1.538461538462e-03, 0.000000000000e+00
264, -7.428571428571e-03, 1.538461538462e-03, 0.000000000000e+00
265, -6.285714285714e-03, 1.538461538462e-03, 0.000000000000e+00
266, -5.142857142857e-03, 1.538461538462e-03, 0.000000000000e+00
267, -4.000000000000e-03, 1.538461538462e-03, 0.000000000000e+00
268, -2.857142857143e-03, 1.538461538462e-03, 0.000000000000e+00
269, -1.714285714286e-03, 1.538461538462e-03, 0.000000000000e+00
270, -5.714285714286e-04, 1.538461538462e-03, 0.000000000000e+00
271, 5.714285714286e-04, 1.538461538462e-03, 0.000000000000e+00
272, 1.714285714286e-03, 1.538461538462e-03, 0.000000000000e+00
273, 2.857142857143e-03, 1.538461538462e-03, 0.000000000000e+00
274, 4.000000000000e-03, 1.538461538462e-03, 0.000000000000e+00
275, 5.142857142857e-03, 1.538461538462e-03, 0.000000000000e+00
276, 6.285714285714e-03, 1.538461538462e-03, 0.000000000000e+00
277, 7.428571428571e-03, 1.538461538462e-03, 0.000000000000e+00
278, 8.571428571429e-03, 1.538461538462e-03, 0.000000000000e+00
279, 9.714285714286e-03, 1.538461538462e-03, 0.000000000000e+00
280, 1.085714285714e-02, 1.538461538462e-03, 0.000000000000e+00
281, 1.200000000000e-02, 1.538461538462e-03, 0.000000000000e+00
282, 1.314285714286e-02, 1.538461538462e-03, 0.000000000000e+00
283, 1.428571428571e-02, 1.538461538462e-03, 0.000000000000e+00
284, 1.542857142857e-02, 1.538461538462e-03, 0.000000000000e+00
285, 1.657142857143e-02, 1.538461538462e-03, 0.000000000000e+00
286, 1.771428571429e-02, 1.538461538462e-03, 0.000000000000e+00
287, 1.885714285714e-02, 1.538461538462e-03, 0.000000000000e+00
288, 2.000000000000e-02, 1.538461538462e-03, 0.000000000000e+00
289, -2.000000000000e-02, 4.615384615385e-03, 0.000000000000e+00
290, -1.885714285714e-02, 4.615384615385e-03, 0.000000000000e+00
291, -1.771428571429e-02, 4.615384615385e-03, 0.000000000000e+00
292, -1.657142857143e-02, 4.615384615385e-03, 0.000000000000e+00
293, -1.542857142857e-02, 4.615384615385e-03, 0.000000000000e+00
294, -1.428571428571e-02, 4.615384615385e-03, 0.000000000000e+00
295, -1.314285714286e-02, 4.615384615385e-03, 0.000000000000e+00
296, -1.200000000000e-02, 4.615384615385e-03, 0.000000000000e+00
297, -1.085714285714e-02, 4.615384615385e-03, 0.000000000000e+00
298, -9.714285714286e-03, 4.615384615385e-03, 0.000000000000e+00
299, -8.571428571429e-03, 4.615384615385e-03, 0.000000000000e+00
300, -7.428571428571e-03, 4.615384615385e-03, 0.000000000000e+00
301, -6.285714285714e-03, 4.615384615385e-03, 0.000000000000e+00
302, -5.142857142857e-03, 4.615384615385e-03, 0.000000000000e+00
303, -4.000000000000e-03, 4.615384615385e-03, 0.000000000000e+00
304, -2.857142857143e-03, 4.615384615385e-03, 0.000000000000e+00
305, -1.714285714286e-03, 4.615384615385e-03, 0.000000000000e+00
306, -5.714285714286e-04, 4.615384615385e-03, 0.000000000000e+00
307, 5.714285714286e-04, 4.615384615385e-03, 0.000000000000e+00
308, 1.714285714286e-03, 4.615384615385e-03, 0.000000000000e+00
309, 2.857142857143e-03, 4.615384615385e-03, 0.000000000000e+00
310, 4.000000000000e-03, 4.615384615385e-03, 0.000000000000e+00
311, 5.142857142857e-03, 4.615384615385e-03, 0.000000000000e+00
312, 6.285714285714e-03, 4.615384615385e-03, 0.000000000000e+00
313, 7.428571428571e-03, 4.615384615385e-03, 0.000000000000e+00
314, 8.571428571429e-03, 4.615384615385e-03, 0.000000000000e+00
315, 9.714285714286e-03, 4.615384615385e-03, 0.000000000000e+00
316, 1.085714285714e-02, 4.615384615385e-03, 0.000000000000e+00
317, 1.200000000000e-02, 4.615384615385e-03, 0.000000000000e+00
318, 1.314285714286e-02, 4.615384615385e-03, 0.000000000000e+00
319, 1.428571428571e-02, 4.615384615385e-03, 0.000000000000e+00
320, 1.542857142857e-02, 4.615384615385e-03, 0.000000000000e+00
321, 1.657142857143e-02, 4.615384615385e-03, 0.000000000000e+00
322, 1.771428571429e-02, 4.615384615385e-03, 0.000000000000e+00
323, 1.885714285714e-02, 4.615384615385e-03, 0.000000000000e+00
324, 2.000000000000e-02, 4.615384615385e-03, 0.000000000000e+00
325, -2.000000000000e-02, 7.692307692308e-03, 0.000000000000e+00
326, -1.885714285714e-02, 7.692307692308e-03, 0.000000000000e+00
327, -1.771428571429e-02, 7.692307692308e-03, 0.000000000000e+00
328, -1.657142857143e-02, 7.692307692308e-03, 0.000000000000e+00
329, -1.542857142857e-02, 7.692307692308e-03, 0.000000000000e+00
330, -1.428571428571e-02, 7.692307692308e-03, 0.000000000000e+00
331, -1.314285714286e-02, 7.692307692308e-03, 0.000000000000e+00
332, -1.200000000000e-02, 7.692307692308e-03, 0.000000000000e+00
333, -1.085714285714e-02, 7.692307692308e-03, 0.000000000000e+00
334, -9.714285714286e-03, 7.692307692308e-03, 0.000000000000e+00
335, -8.571428571429e-03, 7.692307692308e-03, 0.000000000000e+00
336, -7.428571428571e-03, 7.692307692308e-03, 0.000000000000e+00
337, -6.285714285714e-03, 7.692307692308e-03, 0.000000000000e+00
338, -5.142857142857e-03, 7.692307692308e-03, 0.000000000000e+00
339, -4.000000000000e-03, 7.692307692308e-03, 0.000000000000e+00
340, -2.857142857143e-03, 7.692307692308e-03, 0.000000000000e+00
341, -1.714285714286e-03, 7.692307692308e-03, 0.000000000000e+00
342, -5.714285714286e-04, 7.692307692308e-03, 0.000000000000e+00
343, 5.714285714286e-04, 7.692307692308e-03, 0.000000000000e+00
344, 1.714285714286e-03, 7.692307692308e-03, 0.000000000000e+00
345, 2.857142857143e-03, 7.692307692308e-03, 0.000000000000e+00
346, 4.000000000000e-03, 7.692307692308e-03, 0.000000000000e+00
347, 5.142857142857e-03, 7.692307692308e-03, 0.000000000000e+00
348, 6.285714285714e-03, 7.692307692308e-03, 0.000000000000e+00
349, 7.428571428571e-03, 7.692307692308e-03, 0.000000000000e+00
350, 8.571428571429e-03, 7.692307692308e-03, 0.000000000000e+00
351, 9.714285714286e-03, 7.692307692308e-03, 0.000000000000e+00
352, 1.085714285714e-02, 7.692307692308e-03, 0.000000000000e+00
353, 1.200000000000e-02, 7.692307692308e-03, 0.000000000000e+00
354, 1.314285714286e-02, 7.692307692308e-03, 0.000000000000e+00
355, 1.428571428571e-02, 7.692307692308e-03, 0.000000000000e+00
356, 1.542857142857e-02, 7.692307692308e-03, 0.000000000000e+00
357, 1.657142857143e-02, 7.692307692308e-03, 0.000000000000e+00
358, 1.771428571429e-02, 7.692307692308e-03, 0.000000000000e+00
359, 1.885714285714e-02, 7.692307692308e-03, 0.000000000000e+00
360, 2.000000000000e-02, 7.692307692308e-03, 0.000000000000e+00
361, -2.000000000000e-02, 1.076923076923e-02, 0.000000000000e+00
362, -1.885714285714e-02, 1.076923076923e-02, 0.000000000000e+00
363, -1.771428571429e-02, 1.076923076923e-02, 0.000000000000e+00
364, -1.657142857143e-02, 1.076923076923e-02, 0.000000000000e+00
365, -1.542857142857e-02, 1.076923076923e-02, 0.000000000000e+00
366, -1.428571428571e-02, 1.076923076923e-02, 0.000000000000e+00
367, -1.314285714286e-02, 1.076923076923e-02, 0.000000000000e+00
368, -1.200000000000e-02, 1.076923076923e-02, 0.000000000000e+00
369, -1.085714285714e-02, 1.076923076923e-02, 0.000000000000e+00
370, -9.714285714286e-03, 1.076923076923e-02, 0.000000000000e+00
371, -8.571428571429e-03, 1.076923076923e-02, 0.000000000000e+00
372, -7.428571428571e-03, 1.076923076923e-02, 0.000000000000e+00
373, -6.285714285714e-03, 1.076923076923e-02, 0.000000000000e+00
374, -5.142857142857e-03, 1.076923076923e-02, 0.000000000000e+00
375, -4.000000000000e-03, 1.076923076923e-02, 0.000000000000e+00
376, -2.857142857143e-03, 1.076923076923e-02, 0.000000000000e+00
377, -1.714285714286e-03, 1.076923076923e-02, 0.000000000000e+00
378, -5.714285714286e-04, 1.076923076923e-02, 0.000000000000e+00
379, 5.714285714286e-04, 1.076923076923e-02, 0.000000000000e+00
380, 1.714285714286e-03, 1.076923076923e-02, 0.000000000000e+00
381, 2.857142857143e-03, 1.076923076923e-02, 0.000000000000e+00
382, 4.000000000000e-03, 1.076923076923e-02, 0.000000000000e+00
383, 5.142857142857e-03, 1.076923076923e-02, 0.000000000000e+00
384, 6.285714285714e-03, 1.076923076923e-02, 0.000000000000e+00
385, 7.428571428571e-03, 1.076923076923e-02, 0.000000000000e+00
386, 8.571428571429e-03, 1.076923076923e-02, 0.000000000000e+00
387, 9.714285714286e-03, 1.076923076923e-02, 0.000000000000e+00
388, 1.085714285714e-02, 1.076923076923e-02, 0.000000000000e+00
389, 1.200000000000e-02, 1.076923076923e-02, 0.000000000000e+00
390, 1.314285714286e-02, 1.076923076923e-02, 0.000000000000e+00
391, 1.428571428571e-02, 1.076923076923e-02, 0.000000000000e+00
392, 1.542857142857e-02, 1.076923076923e-02, 0.000000000000e+00
393, 1.657142857143e-02, 1.076923076923e-02, 0.000000000000e+00
394, 1.771428571429e-02, 1.076923076923e-02, 0.000000000000e+00
395, 1.885714285714e-02, 1.076923076923e-02, 0.000000000000e+00
396, 2.000000000000e-02, 1.076923076923e-02, 0.000000000000e+00
397, -2.000000000000e-02, 1.384615384615e-02, 0.000000000000e+00
398, -1.885714285714e-02, 1.384615384615e-02, 0.000000000000e+00
399, -1.771428571429e-02, 1.384615384615e-02, 0.000000000000e+00
400, -1.657142857143e-02, 1.384615384615e-02, 0.000000000000e+00
401, -1.542857142857e-02, 1.384615384615e-02, 0.000000000000e+00
402, -1.428571428571e-02, 1.384615384615e-02, 0.000000000000e+00
403, -1.314285714286e-02, 1.384615384615e-02, 0.000000000000e+00
404, -1.200000000000e-02, 1.384615384615e-02, 0.000000000000e+00
405, -1.085714285714e-02, 1.384615384615e-02, 0.000000000000e+00
406, -9.714285714286e-03, 1.384615384615e-02, 0.000000000000e+00
407, -8.571428571429e-03, 1.384615384615e-02, 0.000000000000e+00
408, -7.428571428571e-03, 1.384615384615e-02, 0.000000000000e+00
409, -6.285714285714e-03, 1.384615384615e-02, 0.000000000000e+00
410, -5.142857142857e-03, 1.384615384615e-02, 0.000000000000e+00
411, -4.000000000000e-03, 1.384615384615e-02, 0.000000000000e+00
412, -2.857142857143e-03, 1.384615384615e-02, 0.000000000000e+00
413, -1.714285714286e-03, 1.384615384615e-02, 0.000000000000e+00
414, -5.714285714286e-04, 1.384615384615e-02, 0.000000000000e+00
415, 5.714285714286e-04, 1.384615384615e-02, 0.000000000000e+00
416, 1.714285714286e-03, 1.384615384615e-02, 0.000000000000e+00
417, 2.857142857143e-03, 1.384615384615e-02, 0.000000000000e+00
418, 4.000000000000e-03, 1.384615384615e-02, 0.000000000000e+00
419, 5.142857142857e-03, 1.384615384615e-02, 0.000000000000e+00
420, 6.285714285714e-03, 1.384615384615e-02, 0.000000000000e+00
421, 7.428571428571e-03, 1.384615384615e-02, 0.000000000000e+00
422, 8.571428571429e-03, 1.384615384615e-02, 0.000000000000e+00
423, 9.714285714286e-03, 1.384615384615e-02, 0.000000000000e+00
424, 1.085714285714e-02, 1.384615384615e-02, 0.000000000000e+00
425, 1.200000000000e-02, 1.384615384615e-02, 0.000000000000e+00
426, 1.314285714286e-02, 1.384615384615e-02, 0.000000000000e+00
427, 1.428571428571e-02, 1.384615384615e-02, 0.000000000000e+00
428, 1.542857142857e-02, 1.384615384615e-02, 0.000000000000e+00
429, 1.657142857143e-02, 1.384615384615e-02, 0.000000000000e+00
430, 1.771428571429e-02, 1.384615384615e-02, 0.000000000000e+00
431, 1.885714285714e-02, 1.384615384615e-02, 0.000000000000e+00
432, 2.000000000000e-02, 1.384615384615e-02, 0.000000000000e+00
433, -2.000000000000e-02, 1.692307692308e-02, 0.000000000000e+00
434, -1.885714285714e-02, 1.692307692308e-02, 0.000000000000e+00
435, -1.771428571429e-02, 1.692307692308e-02, 0.000000000000e+00
436, -1.657142857143e-02, 1.692307692308e-02, 0.000000000000e+00
437, -1.542857142857e-02, 1.692307692308e-02, 0.000000000000e+00
438, -1.428571428571e-02, 1.692307692308e-02, 0.000000000000e+00
439, -1.314285714286e-02, 1.692307692308e-02, 0.000000000000e+00
440, -1.200000000000e-02, 1.692307692308e-02, 0.000000000000e+00
441, -1.085714285714e-02, 1.692307692308e-02, 0.000000000000e+00
442, -9.714285714286e-03, 1.692307692308e-02, 0.000000000000e+00
443, -8.571428571429e-03, 1.692307692308e-02, 0.000000000000e+00
444, -7.428571428571e-03, 1.692307692308e-02, 0.000000000000e+00
445, -6.285714285714e-03, 1.692307692308e-02, 0.000000000000e+00
446, -5.142857142857e-03, 1.692307692308e-02, 0.000000000000e+00
447, -4.000000000000e-03, 1.692307692308e-02, 0.000000000000e+00
448, -2.857142857143e-03, 1.692307692308e-02, 0.000000000000e+00
449, -1.714285714286e-03, 1.692307692308e-02, 0.000000000000e+00
450, -5.714285714286e-04, 1.692307692308e-02, 0.000000000000e+00
451, 5.714285714286e-04, 1.692307692308e-02, 0.000000000000e+00
452, 1.714285714286e-03, 1.692307692308e-02, 0.000000000000e+00
453, 2.857142857143e-03, 1.692307692308e-02, 0.000000000000e+00
454, 4.000000000000e-03, 1.692307692308e-02, 0.000000000000e+00
455, 5.142857142857e-03, 1.692307692308e-02, 0.000000000000e+00
456, 6.285714285714e-03, 1.692307692308e-02, 0.000000000000e+00
457, 7.428571428571e-03, 1.692307692308e-02, 0.000000000000e+00
458, 8.571428571429e-03, 1.692307692308e-02, 0.000000000000e+00
459, 9.714285714286e-03, 1.692307692308e-02, 0.000000000000e+00
460, 1.085714285714e-02, 1.692307692308e-02, 0.000000000000e+00
461, 1.200000000000e-02, 1.692307692308e-02, 0.000000000000e+00
462, 1.314285714286e-02, 1.692307692308e-02, 0.000000000000e+00
463, 1.428571428571e-02, 1.692307692308e-02, 0.000000000000e+00
464, 1.542857142857e-02, 1.692307692308e-02, 0.000000000000e+00
465, 1.657142857143e-02, 1.692307692308e-02, 0.000000000000e+00
466, 1.771428571429e-02, 1.692307692308e-02, 0.000000000000e+00
467, 1.885714285714e-02, 1.692307692308e-02, 0.000000000000e+00
468, 2.000000000000e-02, 1.692307692308e-02, 0.000000000000e+00
469, -2.000000000000e-02, 2.000000000000e-02, 0.000000000000e+00
470, -1.885714285714e-02, 2.000000000000e-02, 0.000000000000e+00
471, -1.771428571429e-02, 2.000000000000e-02, 0.000000000000e+00
472, -1.657142857143e-02, 2.000000000000e-02, 0.000000000000e+00
473, -1.542857142857e-02, 2.000000000000e-02, 0.000000000000e+00
474, -1.428571428571e-02, 2.000000000000e-02, 0.000000000000e+00
475, -1.314285714286e-02, 2.000000000000e-02, 0.000000000000e+00
476, -1.200000000000e-02, 2.000000000000e-02, 0.000000000000e+00
477, -1.085714285714e-02, 2.000000000000e-02, 0.000000000000e+00
478, -9.714285714286e-03, 2.000000000000e-02, 0.000000000000e+00
479, -8.571428571429e-03, 2.000000000000e-02, 0.000000000000e+00
480, -7.428571428571e-03, 2.000000000000e-02, 0.000000000000e+00
481, -6.285714285714e-03, 2.000000000000e-02, 0.000000000000e+00
482, -5.142857142857e-03, 2.000000000000e-02, 0.000000000000e+00
483, -4.000000000000e-03, 2.000000000000e-02, 0.000000000000e+00
484, -2.857142857143e-03, 2.000000000000e-02, 0.000000000000e+00
485, -1.714285714286e-03, 2.000000000000e-02, 0.000000000000e+00
486, -5.714285714286e-04, 2.000000000000e-02, 0.000000000000e+00
487, 5.714285714286e-04, 2.000000000000e-02, 0.000000000000e+00
488, 1.714285714286e-03, 2.000000000000e-02, 0.000000000000e+00
489, 2.857142857143e-03, 2.000000000000e-02, 0.000000000000e+00
490, 4.000000000000e-03, 2.000000000000e-02, 0.000000000000e+00
491, 5.142857142857e-03, 2.000000000000e-02, 0.000000000000e+00
492, 6.285714285714e-03, 2.000000000000e-02, 0.000000000000e+00
493, 7.428571428571e-03, 2.000000000000e-02, 0.000000000000e+00
494, 8.571428571429e-03, 2.000000000000e-02, 0.000000000000e+00
495, 9.714285714286e-03, 2.000000000000e-02, 0.000000000000e+00
496, 1.085714285714e-02, 2.000000000000e-02, 0.000000000000e+00
497, 1.200000000000e-02, 2.000000000000e-02, 0.000000000000e+00
498, 1.314285714286e-02, 2.000000000000e-02, 0.000000000000e+00
499, 1.428571428571e-02, 2.000000000000e-02, 0.000000000000e+00
500, 1.542857142857e-02, 2.000000000000e-02, 0.000000000000e+00
501, 1.657142857143e-02, 2.000000000000e-02, 0.000000000000e+00
502, 1.771428571429e-02, 2.000000000000e-02, 0.000000000000e+00
503, 1.885714285714e-02, 2.000000000000e-02, 0.000000000000e+00
504, 2.000000000000e-02, 2.000000000000e-02, 0.000000000000e+00
505, -2.000000000000e-02, -2.000000000000e-02, 9.090909090909e-04
506, -1.885714285714e-02, -2.000000000000e-02, 9.090909090909e-04
507, -1.771428571429e-02, -2.000000000000e-02, 9.090909090909e-04
508, -1.657142857143e-02, -2.000000000000e-02, 9.090909090909e-04
509, -1.542857142857e-02, -2.000000000000e-02, 9.090909090909e-04
510, -1.428571428571e-02, -2.000000000000e-02, 9.090909090909e-04
511, -1.314285714286e-02, -2.000000000000e-02, 9.090909090909e-04
512, -1.200000000000e-02, -2.000000000000e-02, 9.090909090909e-04
513, -1.085714285714e-02, -2.000000000000e-02, 9.090909090909e-04
514, -9.714285714286e-03, -2.000000000000e-02, 9.090909090909e-04
515, -8.571428571429e-03, -2.000000000000e-02, 9.090909090909e-04
516, -7.428571428571e-03, -2.000000000000e-02, 9.090909090909e-04
517, -6.285714285714e-03, -2.000000000000e-02, 9.090909090909e-04
518, -5.142857142857e-03, -2.000000000000e-02, 9.090909090909e-04
519, -4.000000000000e-03, -2.000000000000e-02, 9.090909090909e-04
520, -2.857142857143e-03, -2.000000000000e-02, 9.090909090909e-04
521, -1.714285714286e-03, -2.000000000000e-02, 9.090909090909e-04
522, -5.714285714286e-04, -2.000000000000e-02, 9.090909090909e-04
523, 5.714285714286e-04, -2.000000000000e-02, 9.090909090909e-04
524, 1.714285714286e-03, -2.000000000000e-02, 9.090909090909e-04
525, 2.857142857143e-03, -2.000000000000e-02, 9.090909090909e-04
526, 4.000000000000e-03, -2.000000000000e-02, 9.090909090909e-04
527, 5.142857142857e-03, -2.000000000000e-02, 9.090909090909e-04
528, 6.285714285714e-03, -2.000000000000e-02, 9.090909090909e-04
529, 7.428571428571e-03, -2.000000000000e-02, 9.090909090909e-04
530, 8.571428571429e-03, -2.000000000000e-02, 9.090909090909e-04
531, 9.714285714286e-03, -2.000000000000e-02, 9.090909090909e-04
532, 1.085714285714e-02, -2.000000000000e-02, 9.090909090909e-04
533, 1.200000000000e-02, -2.000000000000e-02, 9.090909090909e-04
534, 1.314285714286e-02, -2.000000000000e-02, 9.090909090909e-04
535, 1.428571428571e-02, -2.000000000000e-02, 9.090909090909e-04
536, 1.542857142857e-02, -2.000000000000e-02, 9.090909090909e-04
537, 1.657142857143e-02, -2.000000000000e-02, 9.090909090909e-04
538, 1.771428571429e-02, -2.000000000000e-02, 9.090909090909e-04
539, 1.885714285714e-02, -2.000000000000e-02, 9.090909090909e-04
540, 2.000000000000e-02, -2.000000000000e-02, 9.090909090909e-04
541, -2.000000000000e-02, -1.692307692308e-02, 9.090909090909e-04
542, -1.885714285714e-02, -1.692307692308e-02, 9.090909090909e-04
543, -1.771428571429e-02, -1.692307692308e-02, 9.090909090909e-04
544, -1.657142857143e-02, -1.692307692308e-02, 9.090909090909e-04
545, -1.542857142857e-02, -1.692307692308e-02, 9.090909090909e-04
546, -1.428571428571e-02, -1.692307692308e-02, 9.090909090909e-04
547, -1.314285714286e-02, -1.692307692308e-02, 9.090909090909e-04
548, -1.200000000000e-02, -1.692307692308e-02, 9.090909090909e-04
549, -1.085714285714e-02, -1.692307692308e-02, 9.090909090909e-04
550, -9.714285714286e-03, -1.692307692308e-02, 9.090909090909e-04
551, -8.571428571429e-03, -1.692307692308e-02, 9.090909090909e-04
552, -7.428571428571e-03, -1.692307692308e-02, 9.090909090909e-04
553, -6.285714285714e-03, -1.692307692308e-02, 9.090909090909e-04
554, -5.142857142857e-03, -1.692307692308e-02, 9.090909090909e-04
555, -4.000000000000e-03, -1.692307692308e-02, 9.090909090909e-04
556, -2.857142857143e-03, -1.692307692308e-02, 9.090909090909e-04
557, -1.714285714286e-03, -1.692307692308e-02, 9.090909090909e-04
558, -5.714285714286e-04, -1.692307692308e-02, 9.090909090909e-04
559, 5.714285714286e-04, -1.692307692308e-02, 9.090909090909e-04
560, 1.714285714286e-03, -1.692307692308e-02, 9.090909090909e-04
561, 2.857142857143e-03, -1.692307692308e-02, 9.090909090909e-04
562, 4.000000000000e-03, -1.692307692308e-02, 9.090909090909e-04
563, 5.142857142857e-03, -1.692307692308e-02, 9.090909090909e-04
564, 6.285714285714e-03, -1.692307692308e-02, 9.090909090909e-04
565, 7.428571428571e-03, -1.692307692308e-02, 9.090909090909e-04
566, 8.571428571429e-03, -1.692307692308e-02, 9.090909090909e-04
567, 9.714285714286e-03, -1.692307692308e-02, 9.090909090909e-04
568, 1.085714285714e-02, -1.692307692308e-02, 9.090909090909e-04
569, 1.200000000000e-02, -1.692307692308e-02, 9.090909090909e-04
570, 1.314285714286e-02, -1.692307692308e-02, 9.090909090909e-04
571, 1.428571428571e-02, -1.692307692308e-02, 9.090909090909e-04
572, 1.542857142857e-02, -1.692307692308e-02, 9.090909090909e-04
573, 1.657142857143e-02, -1.692307692308e-02, 9.090909090909e-04
574, 1.771428571429e-02, -1.692307692308e-02, 9.090909090909e-04
575, 1.885714285714e-02, -1.692307692308e-02, 9.090909090909e-04
576, 2.000000000000e-02, -1.692307692308e-02, 9.090909090909e-04
577, -2.000000000000e-02, -1.384615384615e-02, 9.090909090909e-04
578, -1.885714285714e-02, -1.384615384615e-02, 9.090909090909e-04
579, -1.771428571429e-02, -1.384615384615e-02, 9.090909090909e-04
580, -1.657142857143e-02, -1.384615384615e-02, 9.090909090909e-04
581, -1.542857142857e-02, -1.384615384615e-02, 9.090909090909e-04
582, -1.428571428571e-02, -1.384615384615e-02, 9.090909090909e-04
583, -1.314285714286e-02, -1.384615384615e-02, 9.090909090909e-04
584, -1.200000000000e-02, -1.384615384615e-02, 9.090909090909e-04
585, -1.085714285714e-02, -1.384615384615e-02, 9.090909090909e-04
586, -9.714285714286e-03, -1.384615384615e-02, 9.090909090909e-04
587, -8.571428571429e-03, -1.384615384615e-02, 9.090909090909e-04
588, -7.428571428571e-03, -1.384615384615e-02, 9.090909090909e-04
589, -6.285714285714e-03, -1.384615384615e-02, 9.090909090909e-04
590, -5.142857142857e-03, -1.384615384615e-02, 9.090909090909e-04
591, -4.000000000000e-03, -1.384615384615e-02, 9.090909090909e-04
592, -2.857142857143e-03, -1.384615384615e-02, 9.090909090909e-04
593, -1.714285714286e-03, -1.384615384615e-02, 9.090909090909e-04
594, -5.714285714286e-04, -1.384615384615e-02, 9.090909090909e-04
595, 5.714285714286e-04, -1.384615384615e-02, 9.090909090909e-04
596, 1.714285714286e-03, -1.384615384615e-02, 9.090909090909e-04
597, 2.857142857143e-03, -1.384615384615e-02, 9.090909090909e-04
598, 4.000000000000e-03, -1.384615384615e-02, 9.090909090909e-04
599, 5.142857142857e-03, -1.384615384615e-02, 9.090909090909e-04
600, 6.285714285714e-03, -1.384615384615e-02, 9.090909090909e-04
601, 7.428571428571e-03, -1.384615384615e-02, 9.090909090909e-04
602, 8.571428571429e-03, -1.384615384615e-02, 9.090909090909e-04
603, 9.714285714286e-03, -1.384615384615e-02, 9.090909090909e-04
604, 1.085714285714e-02, -1.384615384615e-02, 9.090909090909e-04
605, 1.200000000000e-02, -1.384615384615e-02, 9.090909090909e-04
606, 1.314285714286e-02, -1.384615384615e-02, 9.090909090909e-04
607, 1.428571428571e-02, -1.384615384615e-02, 9.090909090909e-04
608, 1.542857142857e-02, -1.384615384615e-02, 9.090909090909e-04
609, 1.657142857143e-02, -1.384615384615e-02, 9.090909090909e-04
610, 1.771428571429e-02, -1.384615384615e-02, 9.090909090909e-04
611, 1.885714285714e-02, -1.384615384615e-02, 9.090909090909e-04
612, 2.000000000000e-02, -1.384615384615e-02, 9.090909090909e-04
613, -2.000000000000e-02, -1.076923076923e-02, 9.090909090909e-04
614, -1.885714285714e-02, -1.076923076923e-02, 9.090909090909e-04
615, -1.771428571429e-02, -1.076923076923e-02, 9.090909090909e-04
616, -1.657142857143e-02, -1.076923076923e-02, 9.090909090909e-04
617, -1.542857142857e-02, -1.076923076923e-02, 9.090909090909e-04
618, -1.428571428571e-02, -1.076923076923e-02, 9.090909090909e-04
619, -1.314285714286e-02, -1.076923076923e-02, 9.090909090909e-04
620, -1.200000000000e-02, -1.076923076923e-02, 9.090909090909e-04
621, -1.085714285714e-02, -1.076923076923e-02, 9.090909090909e-04
622, -9.714285714286e-03, -1.076923076923e-02, 9.090909090909e-04
623, -8.571428571429e-03, -1.076923076923e-02, 9.090909090909e-04
624, -7.428571428571e-03, -1.076923076923e-02, 9.090909090909e-04
625, -6.285714285714e-03, -1.076923076923e-02, 9.090909090909e-04
626, -5.142857142857e-03, -1.076923076923e-02, 9.090909090909e-04
627, -4.000000000000e-03, -1.076923076923e-02, 9.090909090909e-04
628, -2.857142857143e-03, -1.076923076923e-02, 9.090909090909e-04
629, -1.714285714286e-03, -1.076923076923e-02, 9.090909090909e-04
630, -5.714285714286e-04, -1.076923076923e-02, 9.090909090909e-04
631, 5.714285714286e-04, -1.076923076923e-02, 9.090909090909e-04
632, 1.714285714286e-03, -1.076923076923e-02, 9.090909090909e-04
633, 2.857142857143e-03, -1.076923076923e-02, 9.090909090909e-04
634, 4.000000000000e-03, -1.076923076923e-02, 9.090909090909e-04
635, 5.142857142857e-03, -1.076923076923e-02, 9.090909090909e-04
636, 6.285714285714e-03, -1.076923076923e-02, 9.090909090909e-04
637, 7.428571428571e-03, -1.076923076923e-02, 9.090909090909e-04
638, 8.571428571429e-03, -1.076923076923e-02, 9.090909090909e-04
639, 9.714285714286e-03, -1.076923076923e-02, 9.090909090909e-04
640, 1.085714285714e-02, -1.076923076923e-02, 9.090909090909e-04
641, 1.200000000000e-02, -1.076923076923e-02, 9.090909090909e-04
642, 1.314285714286e-02, -1.076923076923e-02, 9.090909090909e-04
643, 1.428571428571e-02, -1.076923076923e-02, 9.090909090909e-04
644, 1.542857142857e-02, -1.076923076923e-02, 9.090909090909e-04
645, 1.657142857143e-02, -1.076923076923e-02, 9.090909090909e-04
646, 1.771428571429e-02, -1.076923076923e-02, 9.090909090909e-04
647, 1.885714285714e-02, -1.076923076923e-02, 9.090909090909e-04
648, 2.000000000000e-02, -1.076923076923e-02, 9.090909090909e-04
649, -2.000000000000e-02, -7.692307692308e-03, 9.090909090909e-04
650, -1.885714285714e-02, -7.692307692308e-03, 9.090909090909e-04
651, -1.771428571429e-02, -7.692307692308e-03, 9.090909090909e-04
652, -1.657142857143e-02, -7.692307692308e-03, 9.090909090909e-04
653, -1.542857142857e-02, -7.692307692308e-03, 9.090909090909e-04
654, -1.428571428571e-02, -7.692307692308e-03, 9.090909090909e-04
655, -1.314285714286e-02, -7.692307692308e-03, 9.090909090909e-04
656, -1.200000000000e-02, -7.692307692308e-03, 9.090909090909e-04
657, -1.085714285714e-02, -7.692307692308e-03, 9.090909090909e-04
658, -9.714285714286e-03, -7.692307692308e-03, 9.090909090909e-04
659, -8.571428571429e-03, -7.692307692308e-03, 9.090909090909e-04
660, -7.428571428571e-03, -7.692307692308e-03, 9.090909090909e-04
661, -6.285714285714e-03, -7.692307692308e-03, 9.090909090909e-04
662, -5.142857142857e-03, -7.692307692308e-03, 9.090909090909e-04
663, -4.000000000000e-03, -7.692307692308e-03, 9.090909090909e-04
664, -2.857142857143e-03, -7.692307692308e-03, 9.090909090909e-04
665, -1.714285714286e-03, -7.692307692308e-03, 9.090909090909e-04
666, -5.714285714286e-04, -7.692307692308e-03, 9.090909090909e-04
667, 5.714285714286e-04, -7.692307692308e-03, 9.090909090909e-04
668, 1.714285714286e-03, -7.692307692308e-03, 9.090909090909e-04
669, 2.857142857143e-03, -7.692307692308e-03, 9.090909090909e-04
670, 4.000000000000e-03, -7.692307692308e-03, 9.090909090909e-04
671, 5.142857142857e-03, -7.692307692308e-03, 9.090909090909e-04
672, 6.285714285714e-03, -7.692307692308e-03, 9.090909090909e-04
673, 7.428571428571e-03, -7.692307692308e-03, 9.090909090909e-04
674, 8.571428571429e-03, -7.692307692308e-03, 9.090909090909e-04
675, 9.714285714286e-03, -7.692307692308e-03, 9.090909090909e-04
676, 1.085714285714e-02, -7.692307692308e-03, 9.090909090909e-04
677, 1.200000000000e-02, -7.692307692308e-03, 9.090909090909e-04
678, 1.314285714286e-02, -7.692307692308e-03, 9.090909090909e-04
679, 1.428571428571e-02, -7.692307692308e-03, 9.090909090909e-04
680, 1.542857142857e-02, -7.692307692308e-03, 9.090909090909e-04
681, 1.657142857143e-02, -7.692307692308e-03, 9.090909090909e-04
682, 1.771428571429e-02, -7.692307692308e-03, 9.090909090909e-04
683, 1.885714285714e-02, -7.692307692308e-03, 9.090909090909e-04
684, 2.000000000000e-02, -7.692307692308e-03, 9.090909090909e-04
685, -2.000000000000e-02, -4.615384615385e-03, 9.090909090909e-04
686, -1.885714285714e-02, -4.615384615385e-03, 9.090909090909e-04
687, -1.771428571429e-02, -4.615384615385e-03, 9.090909090909e-04
688, -1.657142857143e-02, -4.615384615385e-03, 9.090909090909e-04
689, -1.542857142857e-02, -4.615384615385e-03, 9.090909090909e-04
690, -1.428571428571e-02, -4.615384615385e-03, 9.090909090909e-04
691, -1.314285714286e-02, -4.615384615385e-03, 9.090909090909e-04
692, -1.200000000000e-02, -4.615384615385e-03, 9.090909090909e-04
693, -1.085714285714e-02, -4.615384615385e-03, 9.090909090909e-04
694, -9.714285714286e-03, -4.615384615385e-03, 9.090909090909e-04
695, -8.571428571429e-03, -4.615384615385e-03, 9.090909090909e-04
696, -7.428571428571e-03, -4.615384615385e-03, 9.090909090909e-04
697, -6.285714285714e-03, -4.615384615385e-03, 9.090909090909e-04
698, -5.142857142857e-03, -4.615384615385e-03, 9.090909090909e-04
699, -4.000000000000e-03, -4.615384615385e-03, 9.090909090909e-04
700, -2.857142857143e-03, -4.615384615385e-03, 9.090909090909e-04
701, -1.714285714286e-03, -4.615384615385e-03, 9.090909090909e-04
702, -5.714285714286e-04, -4.615384615385e-03, 9.090909090909e-04
703, 5.714285714286e-04, -4.615384615385e-03, 9.090909090909e-04
704, 1.714285714286e-03, -4.615384615385e-03, 9.090909090909e-04
705, 2.857142857143e-03, -4.615384615385e-03, 9.090909090909e-04
706, 4.000000000000e-03, -4.615384615385e-03, 9.090909090909e-04
707, 5.142857142857e-03, -4.615384615385e-03, 9.090909090909e-04
708, 6.285714285714e-03, -4.615384615385e-03, 9.090909090909e-04
709, 7.428571428571e-03, -4.615384615385e-03, 9.090909090909e-04
710, 8.571428571429e-03, -4.615384615385e-03, 9.090909090909e-04
711, 9.714285714286e-03, -4.615384615385e-03, 9.090909090909e-04
712, 1.085714285714e-02, -4.615384615385e-03, 9.090909090909e-04
713, 1.200000000000e-02, -4.615384615385e-03, 9.090909090909e-04
714, 1.314285714286e-02, -4.615384615385e-03, 9.090909090909e-04
715, 1.428571428571e-02, -4.615384615385e-03, 9.090909090909e-04
716, 1.542857142857e-02, -4.615384615385e-03, 9.090909090909e-04
717, 1.657142857143e-02, -4.615384615385e-03, 9.090909090909e-04
718, 1.771428571429e-02, -4.615384615385e-03, 9.090909090909e-04
719, 1.885714285714e-02, -4.615384615385e-03, 9.090909090909e-04
720, 2.000000000000e-02, -4.615384615385e-03, 9.090909090909e-04
721, -2.000000000000e-02, -1.538461538462e-03, 9.090909090909e-04
722, -1.885714285714e-02, -1.538461538462e-03, 9.090909090909e-04
723, -1.771428571429e-02, -1.538461538462e-03, 9.090909090909e-04
724, -1.657142857143e-02, -1.538461538462e-03, 9.090909090909e-04
725, -1.542857142857e-02, -1.538461538462e-03, 9.090909090909e-04
726, -1.428571428571e-02, -1.538461538462e-03, 9.090909090909e-04
727, -1.314285714286e-02, -1.538461538462e-03, 9.090909090909e-04
728, -1.200000000000e-02, -1.538461538462e-03, 9.090909090909e-04
729, -1.085714285714e-02, -1.538461538462e-03, 9.090909090909e-04
730, -9.714285714286e-03, -1.538461538462e-03, 9.090909090909e-04
731, -8.571428571429e-03, -1.538461538462e-03, 9.090909090909e-04
732, -7.428571428571e-03, -1.538461538462e-03, 9.090909090909e-04
733, -6.285714285714e-03, -1.538461538462e-03, 9.090909090909e-04
734, -5.142857142857e-03, -1.538461538462e-03, 9.090909090909e-04
735, -4.000000000000e-03, -1.538461538462e-03, 9.090909090909e-04
736, -2.857142857143e-03, -1.538461538462e-03, 9.090909090909e-04
737, -1.714285714286e-03, -1.538461538462e-03, 9.090909090909e-04
738, -5.714285714286e-04, -1.538461538462e-03, 9.090909090909e-04
739, 5.714285714286e-04, -1.538461538462e-03, 9.090909090909e-04
740, 1.714285714286e-03, -1.538461538462e-03, 9.090909090909e-04
741, 2.857142857143e-03, -1.538461538462e-03, 9.090909090909e-04
742, 4.000000000000e-03, -1.538461538462e-03, 9.090909090909e-04
743, 5.142857142857e-03, -1.538461538462e-03, 9.090909090909e-04
744, 6.285714285714e-03, -1.538461538462e-03, 9.090909090909e-04
745, 7.428571428571e-03, -1.538461538462e-03, 9.090909090909e-04
746, 8.571428571429e-03, -1.538461538462e-03, 9.090909090909e-04
747, 9.714285714286e-03, -1.538461538462e-03, 9.090909090909e-04
748, 1.085714285714e-02, -1.538461538462e-03, 9.090909090909e-04
749, 1.200000000000e-02, -1.538461538462e-03, 9.090909090909e-04
750, 1.314285714286e-02, -1.538461538462e-03, 9.090909090909e-04
751, 1.428571428571e-02, -1.538461538462e-03, 9.090909090909e-04
752, 1.542857142857e-02, -1.538461538462e-03, 9.090909090909e-04
753, 1.657142857143e-02, -1.538461538462e-03, 9.090909090909e-04
754, 1.771428571429e-02, -1.538461538462e-03, 9.090909090909e-04
755, 1.885714285714e-02, -1.538461538462e-03, 9.090909090909e-04
756, 2.000000000000e-02, -1.538461538462e-03, 9.090909090909e-04
757, -2.000000000000e-02, 1.538461538462e-03, 9.090909090909e-04
758, -1.885714285714e-02, 1.538461538462e-03, 9.090909090909e-04
759, -1.771428571429e-02, 1.538461538462e-03, 9.090909090909e-04
760, -1.657142857143e-02, 1.538461538462e-03, 9.090909090909e-04
761, -1.542857142857e-02, 1.538461538462e-03, 9.090909090909e-04
762, -1.428571428571e-02, 1.538461538462e-03, 9.090909090909e-04
763, -1.314285714286e-02, 1.538461538462e-03, 9.090909090909e-04
764, -1.200000000000e-02, 1.538461538462e-03, 9.090909090909e-04
765, -1.085714285714e-02, 1.538461538462e-03, 9.090909090909e-04
766, -9.714285714286e-03, 1.538461538462e-03, 9.090909090909e-04
767, -8.571428571429e-03, 1.538461538462e-03, 9.090909090909e-04
768, -7.428571428571e-03, 1.538461538462e-03, 9.090909090909e-04
769, -6.285714285714e-03, 1.538461538462e-03, 9.090909090909e-04
770, -5.142857142857e-03, 1.538461538462e-03, 9.090909090909e-04
771, -4.000000000000e-03, 1.538461538462e-03, 9.090909090909e-04
772, -2.857142857143e-03, 1.538461538462e-03, 9.090909090909e-04
773, -1.714285714286e-03, 1.538461538462e-03, 9.090909090909e-04
774, -5.714285714286e-04, 1.538461538462e-03, 9.090909090909e-04
775, 5.714285714286e-04, 1.538461538462e-03, 9.090909090909e-04
776, 1.714285714286e-03, 1.538461538462e-03, 9.090909090909e-04
777, 2.857142857143e-03, 1.538461538462e-03, 9.090909090909e-04
778, 4.000000000000e-03, 1.538461538462e-03, 9.090909090909e-04
779, 5.142857142857e-03, 1.538461538462e-03, 9.090909090909e-04
780, 6.285714285714e-03, 1.538461538462e-03, 9.090909090909e-04
781, 7.428571428571e-03, 1.538461538462e-03, 9.090909090909e-04
782, 8.571428571429e-03, 1.538461538462e-03, 9.090909090909e-04
783, 9.714285714286e-03, 1.538461538462e-03, 9.090909090909e-04
784, 1.085714285714e-02, 1.538461538462e-03, 9.090909090909e-04
785, 1.200000000000e-02, 1.538461538462e-03, 9.090909090909e-04
786, 1.314285714286e-02, 1.538461538462e-03, 9.090909090909e-04
787, 1.428571428571e-02, 1.538461538462e-03, 9.090909090909e-04
788, 1.542857142857e-02, 1.538461538462e-03, 9.090909090909e-04
789, 1.657142857143e-02, 1.538461538462e-03, 9.090909090909e-04
790, 1.771428571429e-02, 1.538461538462e-03, 9.090909090909e-04
791, 1.885714285714e-02, 1.538461538462e-03, 9.090909090909e-04
792, 2.000000000000e-02, 1.538461538462e-03, 9.090909090909e-04
793, -2.000000000000e-02, 4.615384615385e-03, 9.090909090909e-04
794, -1.885714285714e-02, 4.615384615385e-03, 9.090909090909e-04
795, -1.771428571429e-02, 4.615384615385e-03, 9.090909090909e-04
796, -1.657142857143e-02, 4.615384615385e-03, 9.090909090909e-04
797, -1.542857142857e-02, 4.615384615385e-03, 9.090909090909e-04
798, -1.428571428571e-02, 4.615384615385e-03, 9.090909090909e-04
799, -1.314285714286e-02, 4.615384615385e-03, 9.090909090909e-04
800, -1.200000000000e-02, 4.615384615385e-03, 9.090909090909e-04
801, -1.085714285714e-02, 4.615384615385e-03, 9.090909090909e-04
802, -9.714285714286e-03, 4.615384615385e-03, 9.090909090909e-04
803, -8.571428571429e-03, 4.615384615385e-03, 9.090909090909e-04
804, -7.428571428571e-03, 4.615384615385e-03, 9.090909090909e-04
805, -6.285714285714e-03, 4.615384615385e-03, 9.090909090909e-04
806, -5.142857142857e-03, 4.615384615385e-03, 9.090909090909e-04
807, -4.000000000000e-03, 4.615384615385e-03, 9.090909090909e-04
808, -2.857142857143e-03, 4.615384615385e-03, 9.090909090909e-04
809, -1.714285714286e-03, 4.615384615385e-03, 9.090909090909e-04
810, -5.714285714286e-04, 4.615384615385e-03, 9.090909090909e-04
811, 5.714285714286e-04, 4.615384615385e-03, 9.090909090909e-04
812, 1.714285714286e-03, 4.615384615385e-03, 9.090909090909e-04
813, 2.857142857143e-03, 4.615384615385e-03, 9.090909090909e-04
814, 4.000000000000e-03, 4.615384615385e-03, 9.090909090909e-04
815, 5.142857142857e-03, 4.615384615385e-03, 9.090909090909e-04
816, 6.285714285714e-03, 4.615384615385e-03, 9.090909090909e-04
817, 7.428571428571e-03, 4.615384615385e-03, 9.090909090909e-04
818, 8.571428571429e-03, 4.615384615385e-03, 9.090909090909e-04
819, 9.714285714286e-03, 4.615384615385e-03, 9.090909090909e-04
820, 1.085714285714e-02, 4.615384615385e-03, 9.090909090909e-04
821, 1.200000000000e-02, 4.615384615385e-03, 9.090909090909e-04
822, 1.314285714286e-02, 4.615384615385e-03, 9.090909090909e-04
823, 1.428571428571e-02, 4.615384615385e-03, 9.090909090909e-04
824, 1.542857142857e-02, 4.615384615385e-03, 9.090909090909e-04
825, 1.657142857143e-02, 4.615384615385e-03, 9.090909090909e-04
826, 1.771428571429e-02, 4.615384615385e-03, 9.090909090909e-04
827, 1.885714285714e-02, 4.615384615385e-03, 9.090909090909e-04
828, 2.000000000000e-02, 4.615384615385e-03, 9.090909090909e-04
829, -2.000000000000e-02, 7.692307692308e-03, 9.090909090909e-04
830, -1.885714285714e-02, 7.692307692308e-03, 9.090909090909e-04
831, -1.771428571429e-02, 7.692307692308e-03, 9.090909090909e-04
832, -1.657142857143e-02, 7.692307692308e-03, 9.090909090909e-04
833, -1.542857142857e-02, 7.692307692308e-03, 9.090909090909e-04
834, -1.428571428571e-02, 7.692307692308e-03, 9.090909090909e-04
835, -1.314285714286e-02, 7.692307692308e-03, 9.090909090909e-04
836, -1.200000000000e-02, 7.692307692308e-03, 9.090909090909e-04
837, -1.085714285714e-02, 7.692307692308e-03, 9.090909090909e-04
838, -9.714285714286e-03, 7.692307692308e-03, 9.090909090909e-04
839, -8.571428571429e-03, 7.692307692308e-03, 9.090909090909e-04
840, -7.428571428571e-03, 7.692307692308e-03, 9.090909090909e-04
841, -6.285714285714e-03, 7.692307692308e-03, 9.090909090909e-04
842, -5.142857142857e-03, 7.692307692308e-03, 9.090909090909e-04
843, -4.000000000000e-03, 7.692307692308e-03, 9.090909090909e-04
844, -2.857142857143e-03, 7.692307692308e-03, 9.090909090909e-04
845, -1.714285714286e-03, 7.692307692308e-03, 9.090909090909e-04
846, -5.714285714286e-04, 7.692307692308e-03, 9.090909090909e-04
847, 5.714285714286e-04, 7.692307692308e-03, 9.090909090909e-04
848, 1.714285714286e-03, 7.692307692308e-03, 9.090909090909e-04
849, 2.857142857143e-03, 7.692307692308e-03, 9.090909090909e-04
850, 4.000000000000e-03, 7.692307692308e-03, 9.090909090909e-04
851, 5.142857142857e-03, 7.692307692308e-03, 9.090909090909e-04
852, 6.285714285714e-03, 7.692307692308e-03, 9.090909090909e-04
853, 7.428571428571e-03, 7.692307692308e-03, 9.090909090909e-04
854, 8.571428571429e-03, 7.692307692308e-03, 9.090909090909e-04
855, 9.714285714286e-03, 7.692307692308e-03, 9.090909090909e-04
856, 1.085714285714e-02, 7.692307692308e-03, 9.090909090909e-04
857, 1.200000000000e-02, 7.692307692308e-03, 9.090909090909e-04
858, 1.314285714286e-02, 7.692307692308e-03, 9.090909090909e-04
859, 1.428571428571e-02, 7.692307692308e-03, 9.090909090909e-04
860, 1.542857142857e-02, 7.692307692308e-03, 9.090909090909e-04
861, 1.657142857143e-02, 7.692307692308e-03, 9.090909090909e-04
862, 1.771428571429e-02, 7.692307692308e-03, 9.090909090909e-04
863, 1.885714285714e-02, 7.692307692308e-03, 9.090909090909e-04
864, 2.000000000000e-02, 7.692307692308e-03, 9.090909090909e-04
865, -2.000000000000e-02, 1.076923076923e-02, 9.090909090909e-04
866, -1.885714285714e-02, 1.076923076923e-02, 9.090909090909e-04
867, -1.771428571429e-02, 1.076923076923e-02, 9.090909090909e-04
868, -1.657142857143e-02, 1.076923076923e-02, 9.090909090909e-04
869, -1.542857142857e-02, 1.076923076923e-02, 9.090909090909e-04
870, -1.428571428571e-02, 1.076923076923e-02, 9.090909090909e-04
871, -1.314285714286e-02, 1.076923076923e-02, 9.090909090909e-04
872, -1.200000000000e-02, 1.076923076923e-02, 9.090909090909e-04
873, -1.085714285714e-02, 1.076923076923e-02, 9.090909090909e-04
874, -9.714285714286e-03, 1.076923076923e-02, 9.090909090909e-04
875, -8.571428571429e-03, 1.076923076923e-02, 9.090909090909e-04
876, -7.428571428571e-03, 1.076923076923e-02, 9.090909090909e-04
877, -6.285714285714e-03, 1.076923076923e-02, 9.090909090909e-04
878, -5.142857142857e-03, 1.076923076923e-02, 9.090909090909e-04
879, -4.000000000000e-03, 1.076923076923e-02, 9.090909090909e-04
880, -2.857142857143e-03, 1.076923076923e-02, 9.090909090909e-04
881, -1.714285714286e-03, 1.076923076923e-02, 9.090909090909e-04
882, -5.714285714286e-04, 1.076923076923e-02, 9.090909090909e-04
883, 5.714285714286e-04, 1.076923076923e-02, 9.090909090909e-04
884, 1.714285714286e-03, 1.076923076923e-02, 9.090909090909e-04
885, 2.857142857143e-03, 1.076923076923e-02, 9.090909090909e-04
886, 4.000000000000e-03, 1.076923076923e-02, 9.090909090909e-04
887, 5.142857142857e-03, 1.076923076923e-02, 9.090909090909e-04
888, 6.285714285714e-03, 1.076923076923e-02, 9.090909090909e-04
889, 7.428571428571e-03, 1.076923076923e-02, 9.090909090909e-04
890, 8.571428571429e-03, 1.076923076923e-02, 9.090909090909e-04
891, 9.714285714286e-03, 1.076923076923e-02, 9.090909090909e-04
892, 1.085714285714e-02, 1.076923076923e-02, 9.090909090909e-04
893, 1.200000000000e-02, 1.076923076923e-02, 9.090909090909e-04
894, 1.314285714286e-02, 1.076923076923e-02, 9.090909090909e-04
895, 1.428571428571e-02, 1.076923076923e-02, 9.090909090909e-04
896, 1.542857142857e-02, 1.076923076923e-02, 9.090909090909e-04
897, 1.657142857143e-02, 1.076923076923e-02, 9.090909090909e-04
898, 1.771428571429e-02, 1.076923076923e-02, 9.090909090909e-04
899, 1.885714285714e-02, 1.076923076923e-02, 9.090909090909e-04
900, 2.000000000000e-02, 1.076923076923e-02, 9.090909090909e-04
901, -2.000000000000e-02, 1.384615384615e-02, 9.090909090909e-04
902, -1.885714285714e-02, 1.384615384615e-02, 9.090909090909e-04
903, -1.771428571429e-02, 1.384615384615e-02, 9.090909090909e-04
904, -1.657142857143e-02, 1.384615384615e-02, 9.090909090909e-04
905, -1.542857142857e-02, 1.384615384615e-02, 9.090909090909e-04
906, -1.428571428571e-02, 1.384615384615e-02, 9.090909090909e-04
907, -1.314285714286e-02, 1.384615384615e-02, 9.090909090909e-04
908, -1.200000000000e-02, 1.384615384615e-02, 9.090909090909e-04
909, -1.085714285714e-02, 1.384615384615e-02, 9.090909090909e-04
910, -9.714285714286e-03, 1.384615384615e-02, 9.090909090909e-04
911, -8.571428571429e-03, 1.384615384615e-02, 9.090909090909e-04
912, -7.428571428571e-03, 1.384615384615e-02, 9.090909090909e-04
913, -6.285714285714e-03, 1.384615384615e-02, 9.090909090909e-04
914, -5.142857142857e-03, 1.384615384615e-02, 9.090909090909e-04
915, -4.000000000000e-03, 1.384615384615e-02, 9.090909090909e-04
916, -2.857142857143e-03, 1.384615384615e-02, 9.090909090909e-04
917, -1.714285714286e-03, 1.384615384615e-02, 9.090909090909e-04
918, -5.714285714286e-04, 1.384615384615e-02, 9.090909090909e-04
919, 5.714285714286e-04, 1.384615384615e-02, 9.090909090909e-04
920, 1.714285714286e-03, 1.384615384615e-02, 9.090909090909e-04
921, 2.857142857143e-03, 1.384615384615e-02, 9.090909090909e-04
922, 4.000000000000e-03, 1.384615384615e-02, 9.090909090909e-04
923, 5.142857142857e-03, 1.384615384615e-02, 9.090909090909e-04
924, 6.285714285714e-03, 1.384615384615e-02, 9.090909090909e-04
925, 7.428571428571e-03, 1.384615384615e-02, 9.090909090909e-04
926, 8.571428571429e-03, 1.384615384615e-02, 9.090909090909e-04
927, 9.714285714286e-03, 1.384615384615e-02, 9.090909090909e-04
928, 1.085714285714e-02, 1.384615384615e-02, 9.090909090909e-04
929, 1.200000000000e-02, 1.384615384615e-02, 9.090909090909e-04
930, 1.314285714286e-02, 1.384615384615e-02, 9.090909090909e-04
931, 1.428571428571e-02, 1.384615384615e-02, 9.090909090909e-04
932, 1.542857142857e-02, 1.384615384615e-02, 9.090909090909e-04
933, 1.657142857143e-02, 1.384615384615e-02, 9.090909090909e-04
934, 1.771428571429e-02, 1.384615384615e-02, 9.090909090909e-04
935, 1.885714285714e-02, 1.384615384615e-02, 9.090909090909e-04
936, 2.000000000000e-02, 1.384615384615e-02, 9.090909090909e-04
937, -2.000000000000e-02, 1.692307692308e-02, 9.090909090909e-04
938, -1.885714285714e-02, 1.692307692308e-02, 9.090909090909e-04
939, -1.771428571429e-02, 1.692307692308e-02, 9.090909090909e-04
940, -1.657142857143e-02, 1.692307692308e-02, 9.090909090909e-04
941, -1.542857142857e-02, 1.692307692308e-02, 9.090909090909e-04
942, -1.428571428571e-02, 1.692307692308e-02, 9.090909090909e-04
943, -1.314285714286e-02, 1.692307692308e-02, 9.090909090909e-04
944, -1.200000000000e-02, 1.692307692308e-02, 9.090909090909e-04
945, -1.085714285714e-02, 1.692307692308e-02, 9.090909090909e-04
946, -9.714285714286e-03, 1.692307692308e-02, 9.090909090909e-04
947, -8.571428571429e-03, 1.692307692308e-02, 9.090909090909e-04
948, -7.428571428571e-03, 1.692307692308e-02, 9.090909090909e-04
949, -6.285714285714e-03, 1.692307692308e-02, 9.090909090909e-04
950, -5.142857142857e-03, 1.692307692308e-02, 9.090909090909e-04
951, -4.000000000000e-03, 1.692307692308e-02, 9.090909090909e-04
952, -2.857142857143e-03, 1.692307692308e-02, 9.090909090909e-04
953, -1.714285714286e-03, 1.692307692308e-02, 9.090909090909e-04
954, -5.714285714286e-04, 1.692307692308e-02, 9.090909090909e-04
955, 5.714285714286e-04, 1.692307692308e-02, 9.090909090909e-04
956, 1.714285714286e-03, 1.692307692308e-02, 9.090909090909e-04
957, 2.857142857143e-03, 1.692307692308e-02, 9.090909090909e-04
958, 4.000000000000e-03, 1.692307692308e-02, 9.090909090909e-04
959, 5.142857142857e-03, 1.692307692308e-02, 9.090909090909e-04
960, 6.285714285714e-03, 1.692307692308e-02, 9.090909090909e-04
961, 7.428571428571e-03, 1.692307692308e-02, 9.090909090909e-04
962, 8.571428571429e-03, 1.692307692308e-02, 9.090909090909e-04
963, 9.714285714286e-03, 1.692307692308e-02, 9.090909090909e-04
964, 1.085714285714e-02, 1.692307692308e-02, 9.090909090909e-04
965, 1.200000000000e-02, 1.692307692308e-02, 9.090909090909e-04
966, 1.314285714286e-02, 1.692307692308e-02, 9.090909090909e-04
967, 1.428571428571e-02, 1.692307692308e-02, 9.090909090909e-04
968, 1.542857142857e-02, 1.692307692308e-02, 9.090909090909e-04
969, 1.657142857143e-02, 1.692307692308e-02, 9.090909090909e-04
970, 1.771428571429e-02, 1.692307692308e-02, 9.090909090909e-04
971, 1.885714285714e-02, 1.692307692308e-02, 9.090909090909e-04
972, 2.000000000000e-02, 1.692307692308e-02, 9.090909090909e-04
973, -2.000000000000e-02, 2.000000000000e-02, 9.090909090909e-04
974, -1.885714285714e-02, 2.000000000000e-02, 9.090909090909e-04
975, -1.771428571429e-02, 2.000000000000e-02, 9.090909090909e-04
976, -1.657142857143e-02, 2.000000000000e-02, 9.090909090909e-04
977, -1.542857142857e-02, 2.000000000000e-02, 9.090909090909e-04
978, -1.428571428571e-02, 2.000000000000e-02, 9.090909090909e-04
979, -1.314285714286e-02, 2.000000000000e-02, 9.090909090909e-04
980, -1.200000000000e-02, 2.000000000000e-02, 9.090909090909e-04
981, -1.085714285714e-02, 2.000000000000e-02, 9.090909090909e-04
982, -9.714285714286e-03, 2.000000000000e-02, 9.090909090909e-04
983, -8.571428571429e-03, 2.000000000000e-02, 9.090909090909e-04
984, -7.428571428571e-03, 2.000000000000e-02, 9.090909090909e-04
985, -6.285714285714e-03, 2.000000000000e-02, 9.090909090909e-04
986, -5.142857142857e-03, 2.000000000000e-02, 9.090909090909e-04
987, -4.000000000000e-03, 2.000000000000e-02, 9.090909090909e-04
988, -2.857142857143e-03, 2.000000000000e-02, 9.090909090909e-04
989, -1.714285714286e-03, 2.000000000000e-02, 9.090909090909e-04
990, -5.714285714286e-04, 2.000000000000e-02, 9.090909090909e-04
991, 5.714285714286e-04, 2.000000000000e-02, 9.090909090909e-04
992, 1.714285714286e-03, 2.000000000000e-02, 9.090909090909e-04
993, 2.857142857143e-03, 2.000000000000e-02, 9.090909090909e-04
994, 4.000000000000e-03, 2.000000000000e-02, 9.090909090909e-04
995, 5.142857142857e-03, 2.000000000000e-02, 9.090909090909e-04
996, 6.285714285714e-03, 2.000000000000e-02, 9.090909090909e-04
997, 7.428571428571e-03, 2.000000000000e-02, 9.090909090909e-04
998, 8.571428571429e-03, 2.000000000000e-02, 9.090909090909e-04
999, 9.714285714286e-03, 2.000000000000e-02, 9.090909090909e-04
1000, 1.085714285714e-02, 2.000000000000e-02, 9.090909090909e-04
1001, 1.200000000000e-02, 2.000000000000e-02, 9.090909090909e-04
1002, 1.314285714286e-02, 2.000000000000e-02, 9.090909090909e-04
1003, 1.428571428571e-02, 2.000000000000e-02, 9.090909090909e-04
1004, 1.542857142857e-02, 2.000000000000e-02, 9.090909090909e-04
1005, 1.657142857143e-02, 2.000000000000e-02, 9.090909090909e-04
1006, 1.771428571429e-02, 2.000000000000e-02, 9.090909090909e-04
1007, 1.885714285714e-02, 2.000000000000e-02, 9.090909090909e-04
1008, 2.000000000000e-02, 2.000000000000e-02, 9.090909090909e-04
1009, -2.000000000000e-02, -2.000000000000e-02, 1.818181818182e-03
1010, -1.885714285714e-02, -2.000000000000e-02, 1.818181818182e-03
1011, -1.771428571429e-02, -2.000000000000e-02, 1.818181818182e-03
1012, -1.657142857143e-02, -2.000000000000e-02, 1.818181818182e-03
1013, -1.542857142857e-02, -2.000000000000e-02, 1.818181818182e-03
1014, -1.428571428571e-02, -2.000000000000e-02, 1.818181818182e-03
1015, -1.314285714286e-02, -2.000000000000e-02, 1.818181818182e-03
1016, -1.200000000000e-02, -2.000000000000e-02, 1.818181818182e-03
1017, -1.085714285714e-02, -2.000000000000e-02, 1.818181818182e-03
1018, -9.714285714286e-03, -2.000000000000e-02, 1.818181818182e-03
1019, -8.571428571429e-03, -2.000000000000e-02, 1.818181818182e-03
1020, -7.428571428571e-03, -2.000000000000e-02, 1.818181818182e-03
1021, -6.285714285714e-03, -2.000000000000e-02, 1.818181818182e-03
1022, -5.142857142857e-03, -2.000000000000e-02, 1.818181818182e-03
1023, -4.000000000000e-03, -2.000000000000e-02, 1.818181818182e-03
1024, -2.857142857143e-03, -2.000000000000e-02, 1.818181818182e-03
1025, -1.714285714286e-03, -2.000000000000e-02, 1.818181818182e-03
1026, -5.714285714286e-04, -2.000000000000e-02, 1.818181818182e-03
1027, 5.714285714286e-04, -2.000000000000e-02, 1.818181818182e-03
1028, 1.714285714286e-03, -2.000000000000e-02, 1.818181818182e-03
1029, 2.857142857143e-03, -2.000000000000e-02, 1.818181818182e-03
1030, 4.000000000000e-03, -2.000000000000e-02, 1.818181818182e-03
1031, 5.142857142857e-03, -2.000000000000e-02, 1.818181818182e-03
1032, 6.285714285714e-03, -2.000000000000e-02, 1.818181818182e-03
1033, 7.428571428571e-03, -2.000000000000e-02, 1.818181818182e-03
1034, 8.571428571429e-03, -2.000000000000e-02, 1.818181818182e-03
1035, 9.714285714286e-03, -2.000000000000e-02, 1.818181818182e-03
1036, 1.085714285714e-02, -2.000000000000e-02, 1.818181818182e-03
1037, 1.200000000000e-02, -2.000000000000e-02, 1.818181818182e-03
1038, 1.314285714286e-02, -2.000000000000e-02, 1.818181818182e-03
1039, 1.428571428571e-02, -2.000000000000e-02, 1.818181818182e-03
1040, 1.542857142857e-02, -2.000000000000e-02, 1.818181818182e-03
1041, 1.657142857143e-02, -2.000000000000e-02, 1.818181818182e-03
1042, 1.771428571429e-02, -2.000000000000e-02, 1.818181818182e-03
1043, 1.885714285714e-02, -2.000000000000e-02, 1.818181818182e-03
1044, 2.000000000000e-02, -2.000000000000e-02, 1.818181818182e-03
1045, -2.000000000000e-02, -1.692307692308e-02, 1.818181818182e-03
1046, -1.885714285714e-02, -1.692307692308e-02, 1.818181818182e-03
1047, -1.771428571429e-02, -1.692307692308e-02, 1.818181818182e-03
1048, -1.657142857143e-02, -1.692307692308e-02, 1.818181818182e-03
1049, -1.542857142857e-02, -1.692307692308e-02, 1.818181818182e-03
1050, -1.428571428571e-02, -1.692307692308e-02, 1.818181818182e-03
1051, -1.314285714286e-02, -1.692307692308e-02, 1.818181818182e-03
1052, -1.200000000000e-02, -1.692307692308e-02, 1.818181818182e-03
1053, -1.085714285714e-02, -1.692307692308e-02, 1.818181818182e-03
1054, -9.714285714286e-03, -1.692307692308e-02, 1.818181818182e-03
1055, -8.571428571429e-03, -1.692307692308e-02, 1.818181818182e-03
1056, -7.428571428571e-03, -1.692307692308e-02, 1.818181818182e-03
1057, -6.285714285714e-03, -1.692307692308e-02, 1.818181818182e-03
1058, -5.142857142857e-03, -1.692307692308e-02, 1.818181818182e-03
1059, -4.000000000000e-03, -1.692307692308e-02, 1.818181818182e-03
1060, -2.857142857143e-03, -1.692307692308e-02, 1.818181818182e-03
1061, -1.714285714286e-03, -1.692307692308e-02, 1.818181818182e-03
1062, -5.714285714286e-04, -1.692307692308e-02, 1.818181818182e-03
1063, 5.714285714286e-04, -1.692307692308e-02, 1.818181818182e-03
1064, 1.714285714286e-03, -1.692307692308e-02, 1.818181818182e-03
1065, 2.857142857143e-03, -1.692307692308e-02, 1.818181818182e-03
1066, 4.000000000000e-03, -1.692307692308e-02, 1.818181818182e-03
1067, 5.142857142857e-03, -1.692307692308e-02, 1.818181818182e-03
1068, 6.285714285714e-03, -1.692307692308e-02, 1.818181818182e-03
1069, 7.428571428571e-03, -1.692307692308e-02, 1.818181818182e-03
1070, 8.571428571429e-03, -1.692307692308e-02, 1.818181818182e-03
1071, 9.714285714286e-03, -1.692307692308e-02, 1.818181818182e-03
1072, 1.085714285714e-02, -1.692307692308e-02, 1.818181818182e-03
1073, 1.200000000000e-02, -1.692307692308e-02, 1.818181818182e-03
1074, 1.314285714286e-02, -1.692307692308e-02, 1.818181818182e-03
1075, 1.428571428571e-02, -1.692307692308e-02, 1.818181818182e-03
1076, 1.542857142857e-02, -1.692307692308e-02, 1.818181818182e-03
1077, 1.657142857143e-02, -1.692307692308e-02, 1.818181818182e-03
1078, 1.771428571429e-02, -1.692307692308e-02, 1.818181818182e-03
1079, 1.885714285714e-02, -1.692307692308e-02, 1.818181818182e-03
1080, 2.000000000000e-02, -1.692307692308e-02, 1.818181818182e-03
1081, -2.000000000000e-02, -1.384615384615e-02, 1.818181818182e-03
1082, -1.885714285714e-02, -1.384615384615e-02, 1.818181818182e-03
1083, -1.771428571429e-02, -1.384615384615e-02, 1.818181818182e-03
1084, -1.657142857143e-02, -1.384615384615e-02, 1.818181818182e-03
1085, -1.542857142857e-02, -1.384615384615e-02, 1.818181818182e-03
1086, -1.428571428571e-02, -1.384615384615e-02, 1.818181818182e-03
1087, -1.314285714286e-02, -1.384615384615e-02, 1.818181818182e-03
1088, -1.200000000000e-02, -1.384615384615e-02, 1.818181818182e-03
1089, -1.085714285714e-02, -1.384615384615e-02, 1.818181818182e-03
1090, -9.714285714286e-03, -1.384615384615e-02, 1.818181818182e-03
1091, -8.571428571429e-03, -1.384615384615e-02, 1.818181818182e-03
1092, -7.428571428571e-03, -1.384615384615e-02, 1.818181818182e-03
1093, -6.285714285714e-03, -1.384615384615e-02, 1.818181818182e-03
1094, -5.142857142857e-03, -1.384615384615e-02, 1.818181818182e-03
1095, -4.000000000000e-03, -1.384615384615e-02, 1.818181818182e-03
1096, -2.857142857143e-03, -1.384615384615e-02, 1.818181818182e-03
1097, -1.714285714286e-03, -1.384615384615e-02, 1.818181818182e-03
1098, -5.714285714286e-04, -1.384615384615e-02, 1.818181818182e-03
1099, 5.714285714286e-04, -1.384615384615e-02, 1.818181818182e-03
1100, 1.714285714286e-03, -1.384615384615e-02, 1.818181818182e-03
1101, 2.857142857143e-03, -1.384615384615e-02, 1.818181818182e-03
1102, 4.000000000000e-03, -1.384615384615e-02, 1.818181818182e-03
1103, 5.142857142857e-03, -1.384615384615e-02, 1.818181818182e-03
1104, 6.285714285714e-03, -1.384615384615e-02, 1.818181818182e-03
1105, 7.428571428571e-03, -1.384615384615e-02, 1.818181818182e-03
1106, 8.571428571429e-03, -1.384615384615e-02, 1.818181818182e-03
1107, 9.714285714286e-03, -1.384615384615e-02, 1.818181818182e-03
1108, 1.085714285714e-02, -1.384615384615e-02, 1.818181818182e-03
1109, 1.200000000000e-02, -1.384615384615e-02, 1.818181818182e-03
1110, 1.314285714286e-02, -1.384615384615e-02, 1.818181818182e-03
1111, 1.428571428571e-02, -1.384615384615e-02, 1.818181818182e-03
1112, 1.542857142857e-02, -1.384615384615e-02, 1.818181818182e-03
1113, 1.657142857143e-02, -1.384615384615e-02, 1.818181818182e-03
1114, 1.771428571429e-02, -1.384615384615e-02, 1.818181818182e-03
1115, 1.885714285714e-02, -1.384615384615e-02, 1.818181818182e-03
1116, 2.000000000000e-02, -1.384615384615e-02, 1.818181818182e-03
1117, -2.000000000000e-02, -1.076923076923e-02, 1.818181818182e-03
1118, -1.885714285714e-02, -1.076923076923e-02, 1.818181818182e-03
1119, -1.771428571429e-02, -1.076923076923e-02, 1.818181818182e-03
1120, -1.657142857143e-02, -1.076923076923e-02, 1.818181818182e-03
1121, -1.542857142857e-02, -1.076923076923e-02, 1.818181818182e-03
1122, -1.428571428571e-02, -1.076923076923e-02, 1.818181818182e-03
1123, -1.314285714286e-02, -1.076923076923e-02, 1.818181818182e-03
1124, -1.200000000000e-02, -1.076923076923e-02, 1.818181818182e-03
1125, -1.085714285714e-02, -1.076923076923e-02, 1.818181818182e-03
1126, -9.714285714286e-03, -1.076923076923e-02, 1.818181818182e-03
1127, -8.571428571429e-03, -1.076923076923e-02, 1.818181818182e-03
1128, -7.428571428571e-03, -1.076923076923e-02, 1.818181818182e-03
1129, -6.285714285714e-03, -1.076923076923e-02, 1.818181818182e-03
1130, -5.142857142857e-03, -1.076923076923e-02, 1.818181818182e-03
1131, -4.000000000000e-03, -1.076923076923e-02, 1.818181818182e-03
1132, -2.857142857143e-03, -1.076923076923e-02, 1.818181818182e-03
1133, -1.714285714286e-03, -1.076923076923e-02, 1.818181818182e-03
1134, -5.714285714286e-04, -1.076923076923e-02, 1.818181818182e-03
1135, 5.714285714286e-04, -1.076923076923e-02, 1.818181818182e-03
1136, 1.714285714286e-03, -1.076923076923e-02, 1.818181818182e-03
1137, 2.857142857143e-03, -1.076923076923e-02, 1.818181818182e-03
1138, 4.000000000000e-03, -1.076923076923e-02, 1.818181818182e-03
1139, 5.142857142857e-03, -1.076923076923e-02, 1.818181818182e-03
1140, 6.285714285714e-03, -1.076923076923e-02, 1.818181818182e-03
1141, 7.428571428571e-03, -1.076923076923e-02, 1.818181818182e-03
1142, 8.571428571429e-03, -1.076923076923e-02, 1.818181818182e-03
1143, 9.714285714286e-03, -1.076923076923e-02, 1.818181818182e-03
1144, 1.085714285714e-02, -1.076923076923e-02, 1.818181818182e-03
1145, 1.200000000000e-02, -1.076923076923e-02, 1.818181818182e-03
1146, 1.314285714286e-02, -1.076923076923e-02, 1.818181818182e-03
1147, 1.428571428571e-02, -1.076923076923e-02, 1.818181818182e-03
1148, 1.542857142857e-02, -1.076923076923e-02, 1.818181818182e-03
1149, 1.657142857143e-02, -1.076923076923e-02, 1.818181818182e-03
1150, 1.771428571429e-02, -1.076923076923e-02, 1.818181818182e-03
1151, 1.885714285714e-02, -1.076923076923e-02, 1.818181818182e-03
1152, 2.000000000000e-02, -1.076923076923e-02, 1.818181818182e-03
1153, -2.000000000000e-02, -7.692307692308e-03, 1.818181818182e-03
1154, -1.885714285714e-02, -7.692307692308e-03, 1.818181818182e-03
1155, -1.771428571429e-02, -7.692307692308e-03, 1.818181818182e-03
1156, -1.657142857143e-02, -7.692307692308e-03, 1.818181818182e-03
1157, -1.542857142857e-02, -7.692307692308e-03, 1.818181818182e-03
1158, -1.428571428571e-02, -7.692307692308e-03, 1.818181818182e-03
1159, -1.314285714286e-02, -7.692307692308e-03, 1.818181818182e-03
1160, -1.200000000000e-02, -7.692307692308e-03, 1.818181818182e-03
1161, -1.085714285714e-02, -7.692307692308e-03, 1.818181818182e-03
1162, -9.714285714286e-03, -7.692307692308e-03, 1.818181818182e-03
1163, -8.571428571429e-03, -7.692307692308e-03, 1.818181818182e-03
1164, -7.428571428571e-03, -7.692307692308e-03, 1.818181818182e-03
1165, -6.285714285714e-03, -7.692307692308e-03, 1.818181818182e-03
1166, -5.142857142857e-03, -7.692307692308e-03, 1.818181818182e-03
1167, -4.000000000000e-03, -7.692307692308e-03, 1.818181818182e-03
1168, -2.857142857143e-03, -7.692307692308e-03, 1.818181818182e-03
1169, -1.714285714286e-03, -7.692307692308e-03, 1.818181818182e-03
1170, -5.714285714286e-04, -7.692307692308e-03, 1.818181818182e-03
1171, 5.714285714286e-04, -7.692307692308e-03, 1.818181818182e-03
1172, 1.714285714286e-03, -7.692307692308e-03, 1.818181818182e-03
1173, 2.857142857143e-03, -7.692307692308e-03, 1.818181818182e-03
1174, 4.000000000000e-03, -7.692307692308e-03, 1.818181818182e-03
1175, 5.142857142857e-03, -7.692307692308e-03, 1.818181818182e-03
1176, 6.285714285714e-03, -7.692307692308e-03, 1.818181818182e-03
1177, 7.428571428571e-03, -7.692307692308e-03, 1.818181818182e-03
1178, 8.571428571429e-03, -7.692307692308e-03, 1.818181818182e-03
1179, 9.714285714286e-03, -7.692307692308e-03, 1.818181818182e-03
1180, 1.085714285714e-02, -7.692307692308e-03, 1.818181818182e-03
1181, 1.200000000000e-02, -7.692307692308e-03, 1.818181818182e-03
1182, 1.314285714286e-02, -7.692307692308e-03, 1.818181818182e-03
1183, 1.428571428571e-02, -7.692307692308e-03, 1.818181818182e-03
1184, 1.542857142857e-02, -7.692307692308e-03, 1.818181818182e-03
1185, 1.657142857143e-02, -7.692307692308e-03, 1.818181818182e-03
1186, 1.771428571429e-02, -7.692307692308e-03, 1.818181818182e-03
1187, 1.885714285714e-02, -7.692307692308e-03, 1.818181818182e-03
1188, 2.000000000000e-02, -7.692307692308e-03, 1.818181818182e-03
1189, -2.000000000000e-02, -4.615384615385e-03, 1.818181818182e-03
1190, -1.885714285714e-02, -4.615384615385e-03, 1.818181818182e-03
1191, -1.771428571429e-02, -4.615384615385e-03, 1.818181818182e-03
1192, -1.657142857143e-02, -4.615384615385e-03, 1.818181818182e-03
1193, -1.542857142857e-02, -4.615384615385e-03, 1.818181818182e-03
1194, -1.428571428571e-02, -4.615384615385e-03, 1.818181818182e-03
1195, -1.314285714286e-02, -4.615384615385e-03, 1.818181818182e-03
1196, -1.200000000000e-02, -4.615384615385e-03, 1.818181818182e-03
1197, -1.085714285714e-02, -4.615384615385e-03, 1.818181818182e-03
1198, -9.714285714286e-03, -4.615384615385e-03, 1.818181818182e-03
1199, -8.571428571429e-03, -4.615384615385e-03, 1.818181818182e-03
1200, -7.428571428571e-03, -4.615384615385e-03, 1.818181818182e-03
1201, -6.285714285714e-03, -4.615384615385e-03, 1.818181818182e-03
1202, -5.142857142857e-03, -4.615384615385e-03, 1.818181818182e-03
1203, -4.000000000000e-03, -4.615384615385e-03, 1.818181818182e-03
1204, -2.857142857143e-03, -4.615384615385e-03, 1.818181818182e-03
1205, -1.714285714286e-03, -4.615384615385e-03, 1.818181818182e-03
1206, -5.714285714286e-04, -4.615384615385e-03, 1.818181818182e-03
1207, 5.714285714286e-04, -4.615384615385e-03, 1.818181818182e-03
1208, 1.714285714286e-03, -4.615384615385e-03, 1.818181818182e-03
1209, 2.857142857143e-03, -4.615384615385e-03, 1.818181818182e-03
1210, 4.000000000000e-03, -4.615384615385e-03, 1.818181818182e-03
1211, 5.142857142857e-03, -4.615384615385e-03, 1.818181818182e-03
1212, 6.285714285714e-03, -4.615384615385e-03, 1.818181818182e-03
1213, 7.428571428571e-03, -4.615384615385e-03, 1.818181818182e-03
1214, 8.571428571429e-03, -4.615384615385e-03, 1.818181818182e-03
1215, 9.714285714286e-03, -4.615384615385e-03, 1.818181818182e-03
1216, 1.085714285714e-02, -4.615384615385e-03, 1.818181818182e-03
1217, 1.200000000000e-02, -4.615384615385e-03, 1.818181818182e-03
1218, 1.314285714286e-02, -4.615384615385e-03, 1.818181818182e-03
1219, 1.428571428571e-02, -4.615384615385e-03, 1.818181818182e-03
1220, 1.542857142857e-02, -4.615384615385e-03, 1.818181818182e-03
1221, 1.657142857143e-02, -4.615384615385e-03, 1.818181818182e-03
1222, 1.771428571429e-02, -4.615384615385e-03, 1.818181818182e-03
1223, 1.885714285714e-02, -4.615384615385e-03, 1.818181818182e-03
1224, 2.000000000000e-02, -4.615384615385e-03, 1.818181818182e-03
1225, -2.000000000000e-02, -1.538461538462e-03, 1.818181818182e-03
1226, -1.885714285714e-02, -1.538461538462e-03, 1.818181818182e-03
1227, -1.771428571429e-02, -1.538461538462e-03, 1.818181818182e-03
1228, -1.657142857143e-02, -1.538461538462e-03, 1.818181818182e-03
1229, -1.542857142857e-02, -1.538461538462e-03, 1.818181818182e-03
1230, -1.428571428571e-02, -1.538461538462e-03, 1.818181818182e-03
1231, -1.314285714286e-02, -1.538461538462e-03, 1.818181818182e-03
1232, -1.200000000000e-02, -1.538461538462e-03, 1.818181818182e-03
1233, -1.085714285714e-02, -1.538461538462e-03, 1.818181818182e-03
1234, -9.714285714286e-03, -1.538461538462e-03, 1.818181818182e-03
1235, -8.571428571429e-03, -1.538461538462e-03, 1.818181818182e-03
1236, -7.428571428571e-03, -1.538461538462e-03, 1.818181818182e-03
1237, -6.285714285714e-03, -1.538461538462e-03, 1.818181818182e-03
1238, -5.142857142857e-03, -1.538461538462e-03, 1.818181818182e-03
1239, -4.000000000000e-03, -1.538461538462e-03, 1.818181818182e-03
1240, -2.857142857143e-03, -1.538461538462e-03, 1.818181818182e-03
1241, -1.714285714286e-03, -1.538461538462e-03, 1.818181818182e-03
1242, -5.714285714286e-04, -1.538461538462e-03, 1.818181818182e-03
1243, 5.714285714286e-04, -1.538461538462e-03, 1.818181818182e-03
1244, 1.714285714286e-03, -1.538461538462e-03, 1.818181818182e-03
1245, 2.857142857143e-03, -1.538461538462e-03, 1.818181818182e-03
1246, 4.000000000000e-03, -1.538461538462e-03, 1.818181818182e-03
1247, 5.142857142857e-03, -1.538461538462e-03, 1.818181818182e-03
1248, 6.285714285714e-03, -1.538461538462e-03, 1.818181818182e-03
1249, 7.428571428571e-03, -1.538461538462e-03, 1.818181818182e-03
1250, 8.571428571429e-03, -1.538461538462e-03, 1.818181818182e-03
1251, 9.714285714286e-03, -1.538461538462e-03, 1.818181818182e-03
1252, 1.085714285714e-02, -1.538461538462e-03, 1.818181818182e-03
1253, 1.200000000000e-02, -1.538461538462e-03, 1.818181818182e-03
1254, 1.314285714286e-02, -1.538461538462e-03, 1.818181818182e-03
1255, 1.428571428571e-02, -1.538461538462e-03, 1.818181818182e-03
1256, 1.542857142857e-02, -1.538461538462e-03, 1.818181818182e-03
1257, 1.657142857143e-02, -1.538461538462e-03, 1.818181818182e-03
1258, 1.771428571429e-02, -1.538461538462e-03, 1.818181818182e-03
1259, 1.885714285714e-02, -1.538461538462e-03, 1.818181818182e-03
1260, 2.000000000000e-02, -1.538461538462e-03, 1.818181818182e-03
1261, -2.000000000000e-02, 1.538461538462e-03, 1.818181818182e-03
1262, -1.885714285714e-02, 1.538461538462e-03, 1.818181818182e-03
1263, -1.771428571429e-02, 1.538461538462e-03, 1.818181818182e-03
1264, -1.657142857143e-02, 1.538461538462e-03, 1.818181818182e-03
1265, -1.542857142857e-02, 1.538461538462e-03, 1.818181818182e-03
1266, -1.428571428571e-02, 1.538461538462e-03, 1.818181818182e-03
1267, -1.314285714286e-02, 1.538461538462e-03, 1.818181818182e-03
1268, -1.200000000000e-02, 1.538461538462e-03, 1.818181818182e-03
1269, -1.085714285714e-02, 1.538461538462e-03, 1.818181818182e-03
1270, -9.714285714286e-03, 1.538461538462e-03, 1.818181818182e-03
1271, -8.571428571429e-03, 1.538461538462e-03, 1.818181818182e-03
1272, -7.428571428571e-03, 1.538461538462e-03, 1.818181818182e-03
1273, -6.285714285714e-03, 1.538461538462e-03, 1.818181818182e-03
1274, -5.142857142857e-03, 1.538461538462e-03, 1.818181818182e-03
1275, -4.000000000000e-03, 1.538461538462e-03, 1.818181818182e-03
1276, -2.857142857143e-03, 1.538461538462e-03, 1.818181818182e-03
1277, -1.714285714286e-03, 1.538461538462e-03, 1.818181818182e-03
1278, -5.714285714286e-04, 1.538461538462e-03, 1.818181818182e-03
1279, 5.714285714286e-04, 1.538461538462e-03, 1.818181818182e-03
1280, 1.714285714286e-03, 1.538461538462e-03, 1.818181818182e-03
1281, 2.857142857143e-03, 1.538461538462e-03, 1.818181818182e-03
1282, 4.000000000000e-03, 1.538461538462e-03, 1.818181818182e-03
1283, 5.142857142857e-03, 1.538461538462e-03, 1.818181818182e-03
1284, 6.285714285714e-03, 1.538461538462e-03, 1.818181818182e-03
1285, 7.428571428571e-03, 1.538461538462e-03, 1.818181818182e-03
1286, 8.571428571429e-03, 1.538461538462e-03, 1.818181818182e-03
1287, 9.714285714286e-03, 1.538461538462e-03, 1.818181818182e-03
1288, 1.085714285714e-02, 1.538461538462e-03, 1.818181818182e-03
1289, 1.200000000000e-02, 1.538461538462e-03, 1.818181818182e-03
1290, 1.314285714286e-02, 1.538461538462e-03, 1.818181818182e-03
1291, 1.428571428571e-02, 1.538461538462e-03, 1.818181818182e-03
1292, 1.542857142857e-02, 1.538461538462e-03, 1.818181818182e-03
1293, 1.657142857143e-02, 1.538461538462e-03, 1.818181818182e-03
1294, 1.771428571429e-02, 1.538461538462e-03, 1.818181818182e-03
1295, 1.885714285714e-02, 1.538461538462e-03, 1.818181818182e-03
1296, 2.000000000000e-02, 1.538461538462e-03, 1.818181818182e-03
1297, -2.000000000000e-02, 4.615384615385e-03, 1.818181818182e-03
1298, -1.885714285714e-02, 4.615384615385e-03, 1.818181818182e-03
1299, -1.771428571429e-02, 4.615384615385e-03, 1.818181818182e-03
1300, -1.657142857143e-02, 4.615384615385e-03, 1.818181818182e-03
1301, -1.542857142857e-02, 4.615384615385e-03, 1.818181818182e-03
1302, -1.428571428571e-02, 4.615384615385e-03, 1.818181818182e-03
1303, -1.314285714286e-02, 4.615384615385e-03, 1.818181818182e-03
1304, -1.200000000000e-02, 4.615384615385e-03, 1.818181818182e-03
1305, -1.085714285714e-02, 4.615384615385e-03, 1.818181818182e-03
1306, -9.714285714286e-03, 4.615384615385e-03, 1.818181818182e-03
1307, -8.571428571429e-03, 4.615384615385e-03, 1.818181818182e-03
1308, -7.428571428571e-03, 4.615384615385e-03, 1.818181818182e-03
1309, -6.285714285714e-03, 4.615384615385e-03, 1.818181818182e-03
1310, -5.142857142857e-03, 4.615384615385e-03, 1.818181818182e-03
1311, -4.000000000000e-03, 4.615384615385e-03, 1.818181818182e-03
1312, -2.857142857143e-03, 4.615384615385e-03, 1.818181818182e-03
1313, -1.714285714286e-03, 4.615384615385e-03, 1.818181818182e-03
1314, -5.714285714286e-04, 4.615384615385e-03, 1.818181818182e-03
1315, 5.714285714286e-04, 4.615384615385e-03, 1.818181818182e-03
1316, 1.714285714286e-03, 4.615384615385e-03, 1.818181818182e-03
1317, 2.857142857143e-03, 4.615384615385e-03, 1.818181818182e-03
1318, 4.000000000000e-03, 4.615384615385e-03, 1.818181818182e-03
1319, 5.142857142857e-03, 4.615384615385e-03, 1.818181818182e-03
1320, 6.285714285714e-03, 4.615384615385e-03, 1.818181818182e-03
1321, 7.428571428571e-03, 4.615384615385e-03, 1.818181818182e-03
1322, 8.571428571429e-03, 4.615384615385e-03, 1.818181818182e-03
1323, 9.714285714286e-03, 4.615384615385e-03, 1.818181818182e-03
1324, 1.085714285714e-02, 4.615384615385e-03, 1.818181818182e-03
1325, 1.200000000000e-02, 4.615384615385e-03, 1.818181818182e-03
1326, 1.314285714286e-02, 4.615384615385e-03, 1.818181818182e-03
1327, 1.428571428571e-02, 4.615384615385e-03, 1.818181818182e-03
1328, 1.542857142857e-02, 4.615384615385e-03, 1.818181818182e-03
1329, 1.657142857143e-02, 4.615384615385e-03, 1.818181818182e-03
1330, 1.771428571429e-02, 4.615384615385e-03, 1.818181818182e-03
1331, 1.885714285714e-02, 4.615384615385e-03, 1.818181818182e-03
1332, 2.000000000000e-02, 4.615384615385e-03, 1.818181818182e-03
1333, -2.000000000000e-02, 7.692307692308e-03, 1.818181818182e-03
1334, -1.885714285714e-02, 7.692307692308e-03, 1.818181818182e-03
1335, -1.771428571429e-02, 7.692307692308e-03, 1.818181818182e-03
1336, -1.657142857143e-02, 7.692307692308e-03, 1.818181818182e-03
1337, -1.542857142857e-02, 7.692307692308e-03, 1.818181818182e-03
1338, -1.428571428571e-02, 7.692307692308e-03, 1.818181818182e-03
1339, -1.314285714286e-02, 7.692307692308e-03, 1.818181818182e-03
1340, -1.200000000000e-02, 7.692307692308e-03, 1.818181818182e-03
1341, -1.085714285714e-02, 7.692307692308e-03, 1.818181818182e-03
1342, -9.714285714286e-03, 7.692307692308e-03, 1.818181818182e-03
1343, -8.571428571429e-03, 7.692307692308e-03, 1.818181818182e-03
1344, -7.428571428571e-03, 7.692307692308e-03, 1.818181818182e-03
1345, -6.285714285714e-03, 7.692307692308e-03, 1.818181818182e-03
1346, -5.142857142857e-03, 7.692307692308e-03, 1.818181818182e-03
1347, -4.000000000000e-03, 7.692307692308e-03, 1.818181818182e-03
1348, -2.857142857143e-03, 7.692307692308e-03, 1.818181818182e-03
1349, -1.714285714286e-03, 7.692307692308e-03, 1.818181818182e-03
1350, -5.714285714286e-04, 7.692307692308e-03, 1.818181818182e-03
1351, 5.714285714286e-04, 7.692307692308e-03, 1.818181818182e-03
1352, 1.714285714286e-03, 7.692307692308e-03, 1.818181818182e-03
1353, 2.857142857143e-03, 7.692307692308e-03, 1.818181818182e-03
1354, 4.000000000000e-03, 7.692307692308e-03, 1.818181818182e-03
1355, 5.142857142857e-03, 7.692307692308e-03, 1.818181818182e-03
1356, 6.285714285714e-03, 7.692307692308e-03, 1.818181818182e-03
1357, 7.428571428571e-03, 7.692307692308e-03, 1.818181818182e-03
1358, 8.571428571429e-03, 7.692307692308e-03, 1.818181818182e-03
1359, 9.714285714286e-03, 7.692307692308e-03, 1.818181818182e-03
1360, 1.085714285714e-02, 7.692307692308e-03, 1.818181818182e-03
1361, 1.200000000000e-02, 7.692307692308e-03, 1.818181818182e-03
1362, 1.314285714286e-02, 7.692307692308e-03, 1.818181818182e-03
1363, 1.428571428571e-02, 7.692307692308e-03, 1.818181818182e-03
1364, 1.542857142857e-02, 7.692307692308e-03, 1.818181818182e-03
1365, 1.657142857143e-02, 7.692307692308e-03, 1.818181818182e-03
1366, 1.771428571429e-02, 7.692307692308e-03, 1.818181818182e-03
1367, 1.885714285714e-02, 7.692307692308e-03, 1.818181818182e-03
1368, 2.000000000000e-02, 7.692307692308e-03, 1.818181818182e-03
1369, -2.000000000000e-02, 1.076923076923e-02, 1.818181818182e-03
1370, -1.885714285714e-02, 1.076923076923e-02, 1.818181818182e-03
1371, -1.771428571429e-02, 1.076923076923e-02, 1.818181818182e-03
1372, -1.657142857143e-02, 1.076923076923e-02, 1.818181818182e-03
1373, -1.542857142857e-02, 1.076923076923e-02, 1.818181818182e-03
1374, -1.428571428571e-02, 1.076923076923e-02, 1.818181818182e-03
1375, -1.314285714286e-02, 1.076923076923e-02, 1.818181818182e-03
1376, -1.200000000000e-02, 1.076923076923e-02, 1.818181818182e-03
1377, -1.085714285714e-02, 1.076923076923e-02, 1.818181818182e-03
1378, -9.714285714286e-03, 1.076923076923e-02, 1.818181818182e-03
1379, -8.571428571429e-03, 1.076923076923e-02, 1.818181818182e-03
1380, -7.428571428571e-03, 1.076923076923e-02, 1.818181818182e-03
1381, -6.285714285714e-03, 1.076923076923e-02, 1.818181818182e-03
1382, -5.142857142857e-03, 1.076923076923e-02, 1.818181818182e-03
1383, -4.000000000000e-03, 1.076923076923e-02, 1.818181818182e-03
1384, -2.857142857143e-03, 1.076923076923e-02, 1.818181818182e-03
1385, -1.714285714286e-03, 1.076923076923e-02, 1.818181818182e-03
1386, -5.714285714286e-04, 1.076923076923e-02, 1.818181818182e-03
1387, 5.714285714286e-04, 1.076923076923e-02, 1.818181818182e-03
1388, 1.714285714286e-03, 1.076923076923e-02, 1.818181818182e-03
1389, 2.857142857143e-03, 1.076923076923e-02, 1.818181818182e-03
1390, 4.000000000000e-03, 1.076923076923e-02, 1.818181818182e-03
1391, 5.142857142857e-03, 1.076923076923e-02, 1.818181818182e-03
1392, 6.285714285714e-03, 1.076923076923e-02, 1.818181818182e-03
1393, 7.428571428571e-03, 1.076923076923e-02, 1.818181818182e-03
1394, 8.571428571429e-03, 1.076923076923e-02, 1.818181818182e-03
1395, 9.714285714286e-03, 1.076923076923e-02, 1.818181818182e-03
1396, 1.085714285714e-02, 1.076923076923e-02, 1.818181818182e-03
1397, 1.200000000000e-02, 1.076923076923e-02, 1.818181818182e-03
1398, 1.314285714286e-02, 1.076923076923e-02, 1.818181818182e-03
1399, 1.428571428571e-02, 1.076923076923e-02, 1.818181818182e-03
1400, 1.542857142857e-02, 1.076923076923e-02, 1.818181818182e-03
1401, 1.657142857143e-02, 1.076923076923e-02, 1.818181818182e-03
1402, 1.771428571429e-02, 1.076923076923e-02, 1.818181818182e-03
1403, 1.885714285714e-02, 1.076923076923e-02, 1.818181818182e-03
1404, 2.000000000000e-02, 1.076923076923e-02, 1.818181818182e-03
1405, -2.000000000000e-02, 1.384615384615e-02, 1.818181818182e-03
1406, -1.885714285714e-02, 1.384615384615e-02, 1.818181818182e-03
1407, -1.771428571429e-02, 1.384615384615e-02, 1.818181818182e-03
1408, -1.657142857143e-02, 1.384615384615e-02, 1.818181818182e-03
1409, -1.542857142857e-02, 1.384615384615e-02, 1.818181818182e-03
1410, -1.428571428571e-02, 1.384615384615e-02, 1.818181818182e-03
1411, -1.314285714286e-02, 1.384615384615e-02, 1.818181818182e-03
1412, -1.200000000000e-02, 1.384615384615e-02, 1.818181818182e-03
1413, -1.085714285714e-02, 1.384615384615e-02, 1.818181818182e-03
1414, -9.714285714286e-03, 1.384615384615e-02, 1.818181818182e-03
1415, -8.571428571429e-03, 1.384615384615e-02, 1.818181818182e-03
1416, -7.428571428571e-03, 1.384615384615e-02, 1.818181818182e-03
1417, -6.285714285714e-03, 1.384615384615e-02, 1.818181818182e-03
1418, -5.142857142857e-03, 1.384615384615e-02, 1.818181818182e-03
1419, -4.000000000000e-03, 1.384615384615e-02, 1.818181818182e-03
1420, -2.857142857143e-03, 1.384615384615e-02, 1.818181818182e-03
1421, -1.714285714286e-03, 1.384615384615e-02, 1.818181818182e-03
1422, -5.714285714286e-04, 1.384615384615e-02, 1.818181818182e-03
1423, 5.714285714286e-04, 1.384615384615e-02, 1.818181818182e-03
1424, 1.714285714286e-03, 1.384615384615e-02, 1.818181818182e-03
1425, 2.857142857143e-03, 1.384615384615e-02, 1.818181818182e-03
1426, 4.000000000000e-03, 1.384615384615e-02, 1.818181818182e-03
1427, 5.142857142857e-03, 1.384615384615e-02, 1.818181818182e-03
1428, 6.285714285714e-03, 1.384615384615e-02, 1.818181818182e-03
1429, 7.428571428571e-03, 1.384615384615e-02, 1.818181818182e-03
1430, 8.571428571429e-03, 1.384615384615e-02, 1.818181818182e-03
1431, 9.714285714286e-03, 1.384615384615e-02, 1.818181818182e-03
1432, 1.085714285714e-02, 1.384615384615e-02, 1.818181818182e-03
1433, 1.200000000000e-02, 1.384615384615e-02, 1.818181818182e-03
1434, 1.314285714286e-02, 1.384615384615e-02, 1.818181818182e-03
1435, 1.428571428571e-02, 1.384615384615e-02, 1.818181818182e-03
1436, 1.542857142857e-02, 1.384615384615e-02, 1.818181818182e-03
1437, 1.657142857143e-02, 1.384615384615e-02, 1.818181818182e-03
1438, 1.771428571429e-02, 1.384615384615e-02, 1.818181818182e-03
1439, 1.885714285714e-02, 1.384615384615e-02, 1.818181818182e-03
1440, 2.000000000000e-02, 1.384615384615e-02, 1.818181818182e-03
1441, -2.000000000000e-02, 1.692307692308e-02, 1.818181818182e-03
1442, -1.885714285714e-02, 1.692307692308e-02, 1.818181818182e-03
1443, -1.771428571429e-02, 1.692307692308e-02, 1.818181818182e-03
1444, -1.657142857143e-02, 1.692307692308e-02, 1.818181818182e-03
1445, -1.542857142857e-02, 1.692307692308e-02, 1.818181818182e-03
1446, -1.428571428571e-02, 1.692307692308e-02, 1.818181818182e-03
1447, -1.314285714286e-02, 1.692307692308e-02, 1.818181818182e-03
1448, -1.200000000000e-02, 1.692307692308e-02, 1.818181818182e-03
1449, -1.085714285714e-02, 1.692307692308e-02, 1.818181818182e-03
1450, -9.714285714286e-03, 1.692307692308e-02, 1.818181818182e-03
1451, -8.571428571429e-03, 1.692307692308e-02, 1.818181818182e-03
1452, -7.428571428571e-03, 1.692307692308e-02, 1.818181818182e-03
1453, -6.285714285714e-03, 1.692307692308e-02, 1.818181818182e-03
1454, -5.142857142857e-03, 1.692307692308e-02, 1.818181818182e-03
1455, -4.000000000000e-03, 1.692307692308e-02, 1.818181818182e-03
1456, -2.857142857143e-03, 1.692307692308e-02, 1.818181818182e-03
1457, -1.714285714286e-03, 1.692307692308e-02, 1.818181818182e-03
1458, -5.714285714286e-04, 1.692307692308e-02, 1.818181818182e-03
1459, 5.714285714286e-04, 1.692307692308e-02, 1.818181818182e-03
1460, 1.714285714286e-03, 1.692307692308e-02, 1.818181818182e-03
1461, 2.857142857143e-03, 1.692307692308e-02, 1.818181818182e-03
1462, 4.000000000000e-03, 1.692307692308e-02, 1.818181818182e-03
1463, 5.142857142857e-03, 1.692307692308e-02, 1.818181818182e-03
1464, 6.285714285714e-03, 1.692307692308e-02, 1.818181818182e-03
1465, 7.428571428571e-03, 1.692307692308e-02, 1.818181818182e-03
1466, 8.571428571429e-03, 1.692307692308e-02, 1.818181818182e-03
1467, 9.714285714286e-03, 1.692307692308e-02, 1.818181818182e-03
1468, 1.085714285714e-02, 1.692307692308e-02, 1.818181818182e-03
1469, 1.200000000000e-02, 1.692307692308e-02, 1.818181818182e-03
1470, 1.314285714286e-02, 1.692307692308e-02, 1.818181818182e-03
1471, 1.428571428571e-02, 1.692307692308e-02, 1.818181818182e-03
1472, 1.542857142857e-02, 1.692307692308e-02, 1.818181818182e-03
1473, 1.657142857143e-02, 1.692307692308e-02, 1.818181818182e-03
1474, 1.771428571429e-02, 1.692307692308e-02, 1.818181818182e-03
1475, 1.885714285714e-02, 1.692307692308e-02, 1.818181818182e-03
1476, 2.000000000000e-02, 1.692307692308e-02, 1.818181818182e-03
1477, -2.000000000000e-02, 2.000000000000e-02, 1.818181818182e-03
1478, -1.885714285714e-02, 2.000000000000e-02, 1.818181818182e-03
1479, -1.771428571429e-02, 2.000000000000e-02, 1.818181818182e-03
1480, -1.657142857143e-02, 2.000000000000e-02, 1.818181818182e-03
1481, -1.542857142857e-02, 2.000000000000e-02, 1.818181818182e-03
1482, -1.428571428571e-02, 2.000000000000e-02, 1.818181818182e-03
1483, -1.314285714286e-02, 2.000000000000e-02, 1.818181818182e-03
1484, -1.200000000000e-02, 2.000000000000e-02, 1.818181818182e-03
1485, -1.085714285714e-02, 2.000000000000e-02, 1.818181818182e-03
1486, -9.714285714286e-03, 2.000000000000e-02, 1.818181818182e-03
1487, -8.571428571429e-03, 2.000000000000e-02, 1.818181818182e-03
1488, -7.428571428571e-03, 2.000000000000e-02, 1.818181818182e-03
1489, -6.285714285714e-03, 2.000000000000e-02, 1.818181818182e-03
1490, -5.142857142857e-03, 2.000000000000e-02, 1.818181818182e-03
1491, -4.000000000000e-03, 2.000000000000e-02, 1.818181818182e-03
1492, -2.857142857143e-03, 2.000000000000e-02, 1.818181818182e-03
1493, -1.714285714286e-03, 2.000000000000e-02, 1.818181818182e-03
1494, -5.714285714286e-04, 2.000000000000e-02, 1.818181818182e-03
1495, 5.714285714286e-04, 2.000000000000e-02, 1.818181818182e-03
1496, 1.714285714286e-03, 2.000000000000e-02, 1.818181818182e-03
1497, 2.857142857143e-03, 2.000000000000e-02, 1.818181818182e-03
1498, 4.000000000000e-03, 2.000000000000e-02, 1.818181818182e-03
1499, 5.142857142857e-03, 2.000000000000e-02, 1.818181818182e-03
1500, 6.285714285714e-03, 2.000000000000e-02, 1.818181818182e-03
1501, 7.428571428571e-03, 2.000000000000e-02, 1.818181818182e-03
1502, 8.571428571429e-03, 2.000000000000e-02, 1.818181818182e-03
1503, 9.714285714286e-03, 2.000000000000e-02, 1.818181818182e-03
1504, 1.085714285714e-02, 2.000000000000e-02, 1.818181818182e-03
1505, 1.200000000000e-02, 2.000000000000e-02, 1.818181818182e-03
1506, 1.314285714286e-02, 2.000000000000e-02, 1.818181818182e-03
1507, 1.428571428571e-02, 2.000000000000e-02, 1.818181818182e-03
1508, 1.542857142857e-02, 2.000000000000e-02, 1.818181818182e-03
1509, 1.657142857143e-02, 2.000000000000e-02, 1.818181818182e-03
1510, 1.771428571429e-02, 2.000000000000e-02, 1.818181818182e-03
1511, 1.885714285714e-02, 2.000000000000e-02, 1.818181818182e-03
1512, 2.000000000000e-02, 2.000000000000e-02, 1.818181818182e-03
1513, -2.000000000000e-02, -2.000000000000e-02, 2.727272727273e-03
1514, -1.885714285714e-02, -2.000000000000e-02, 2.727272727273e-03
1515, -1.771428571429e-02, -2.000000000000e-02, 2.727272727273e-03
1516, -1.657142857143e-02, -2.000000000000e-02, 2.727272727273e-03
1517, -1.542857142857e-02, -2.000000000000e-02, 2.727272727273e-03
1518, -1.428571428571e-02, -2.000000000000e-02, 2.727272727273e-03
1519, -1.314285714286e-02, -2.000000000000e-02, 2.727272727273e-03
1520, -1.200000000000e-02, -2.000000000000e-02, 2.727272727273e-03
1521, -1.085714285714e-02, -2.000000000000e-02, 2.727272727273e-03
1522, -9.714285714286e-03, -2.000000000000e-02, 2.727272727273e-03
1523, -8.571428571429e-03, -2.000000000000e-02, 2.727272727273e-03
1524, -7.428571428571e-03, -2.000000000000e-02, 2.727272727273e-03
1525, -6.285714285714e-03, -2.000000000000e-02, 2.727272727273e-03
1526, -5.142857142857e-03, -2.000000000000e-02, 2.727272727273e-03
1527, -4.000000000000e-03, -2.000000000000e-02, 2.727272727273e-03
1528, -2.857142857143e-03, -2.000000000000e-02, 2.727272727273e-03
1529, -1.714285714286e-03, -2.000000000000e-02, 2.727272727273e-03
1530, -5.714285714286e-04, -2.000000000000e-02, 2.727272727273e-03
1531, 5.714285714286e-04, -2.000000000000e-02, 2.727272727273e-03
1532, 1.714285714286e-03, -2.000000000000e-02, 2.727272727273e-03
1533, 2.857142857143e-03, -2.000000000000e-02, 2.727272727273e-03
1534, 4.000000000000e-03, -2.000000000000e-02, 2.727272727273e-03
1535, 5.142857142857e-03, -2.000000000000e-02, 2.727272727273e-03
1536, 6.285714285714e-03, -2.000000000000e-02, 2.727272727273e-03
1537, 7.428571428571e-03, -2.000000000000e-02, 2.727272727273e-03
1538, 8.571428571429e-03, -2.000000000000e-02, 2.727272727273e-03
1539, 9.714285714286e-03, -2.000000000000e-02, 2.727272727273e-03
1540, 1.085714285714e-02, -2.000000000000e-02, 2.727272727273e-03
1541, 1.200000000000e-02, -2.000000000000e-02, 2.727272727273e-03
1542, 1.314285714286e-02, -2.000000000000e-02, 2.727272727273e-03
1543, 1.428571428571e-02, -2.000000000000e-02, 2.727272727273e-03
1544, 1.542857142857e-02, -2.000000000000e-02, 2.727272727273e-03
1545, 1.657142857143e-02, -2.000000000000e-02, 2.727272727273e-03
1546, 1.771428571429e-02, -2.000000000000e-02, 2.727272727273e-03
1547, 1.885714285714e-02, -2.000000000000e-02, 2.727272727273e-03
1548, 2.000000000000e-02, -2.000000000000e-02, 2.727272727273e-03
1549, -2.000000000000e-02, -1.692307692308e-02, 2.727272727273e-03
1550, -1.885714285714e-02, -1.692307692308e-02, 2.727272727273e-03
1551, -1.771428571429e-02, -1.692307692308e-02, 2.727272727273e-03
1552, -1.657142857143e-02, -1.692307692308e-02, 2.727272727273e-03
1553, -1.542857142857e-02, -1.692307692308e-02, 2.727272727273e-03
1554, -1.428571428571e-02, -1.692307692308e-02, 2.727272727273e-03
1555, -1.314285714286e-02, -1.692307692308e-02, 2.727272727273e-03
1556, -1.200000000000e-02, -1.692307692308e-02, 2.727272727273e-03
1557, -1.085714285714e-02, -1.692307692308e-02, 2.727272727273e-03
1558, -9.714285714286e-03, -1.692307692308e-02, 2.727272727273e-03
1559, -8.571428571429e-03, -1.692307692308e-02, 2.727272727273e-03
1560, -7.428571428571e-03, -1.692307692308e-02, 2.727272727273e-03
1561, -6.285714285714e-03, -1.692307692308e-02, 2.727272727273e-03
1562, -5.142857142857e-03, -1.692307692308e-02, 2.727272727273e-03
1563, -4.000000000000e-03, -1.692307692308e-02, 2.727272727273e-03
1564, -2.857142857143e-03, -1.692307692308e-02, 2.727272727273e-03
1565, -1.714285714286e-03, -1.692307692308e-02, 2.727272727273e-03
1566, -5.714285714286e-04, -1.692307692308e-02, 2.727272727273e-03
1567, 5.714285714286e-04, -1.692307692308e-02, 2.727272727273e-03
1568, 1.714285714286e-03, -1.692307692308e-02, 2.727272727273e-03
1569, 2.857142857143e-03, -1.692307692308e-02, 2.727272727273e-03
1570, 4.000000000000e-03, -1.692307692308e-02, 2.727272727273e-03
1571, 5.142857142857e-03, -1.692307692308e-02, 2.727272727273e-03
1572, 6.285714285714e-03, -1.692307692308e-02, 2.727272727273e-03
1573, 7.428571428571e-03, -1.692307692308e-02, 2.727272727273e-03
1574, 8.571428571429e-03, -1.692307692308e-02, 2.727272727273e-03
1575, 9.714285714286e-03, -1.692307692308e-02, 2.727272727273e-03
1576, 1.085714285714e-02, -1.692307692308e-02, 2.727272727273e-03
1577, 1.200000000000e-02, -1.692307692308e-02, 2.727272727273e-03
1578, 1.314285714286e-02, -1.692307692308e-02, 2.727272727273e-03
1579, 1.428571428571e-02, -1.692307692308e-02, 2.727272727273e-03
1580, 1.542857142857e-02, -1.692307692308e-02, 2.727272727273e-03
1581, 1.657142857143e-02, -1.692307692308e-02, 2.727272727273e-03
1582, 1.771428571429e-02, -1.692307692308e-02, 2.727272727273e-03
1583, 1.885714285714e-02, -1.692307692308e-02, 2.727272727273e-03
1584, 2.000000000000e-02, -1.692307692308e-02, 2.727272727273e-03
1585, -2.000000000000e-02, -1.384615384615e-02, 2.727272727273e-03
1586, -1.885714285714e-02, -1.384615384615e-02, 2.727272727273e-03
1587, -1.771428571429e-02, -1.384615384615e-02, 2.727272727273e-03
1588, -1.657142857143e-02, -1.384615384615e-02, 2.727272727273e-03
1589, -1.542857142857e-02, -1.384615384615e-02, 2.727272727273e-03
1590, -1.428571428571e-02, -1.384615384615e-02, 2.727272727273e-03
1591, -1.314285714286e-02, -1.384615384615e-02, 2.727272727273e-03
1592, -1.200000000000e-02, -1.384615384615e-02, 2.727272727273e-03
1593, -1.085714285714e-02, -1.384615384615e-02, 2.727272727273e-03
1594, -9.714285714286e-03, -1.384615384615e-02, 2.727272727273e-03
1595, -8.571428571429e-03, -1.384615384615e-02, 2.727272727273e-03
1596, -7.428571428571e-03, -1.384615384615e-02, 2.727272727273e-03
1597, -6.285714285714e-03, -1.384615384615e-02, 2.727272727273e-03
1598, -5.142857142857e-03, -1.384615384615e-02, 2.727272727273e-03
1599, -4.000000000000e-03, -1.384615384615e-02, 2.727272727273e-03
1600, -2.857142857143e-03, -1.384615384615e-02, 2.727272727273e-03
1601, -1.714285714286e-03, -1.384615384615e-02, 2.727272727273e-03
1602, -5.714285714286e-04, -1.384615384615e-02, 2.727272727273e-03
1603, 5.714285714286e-04, -1.384615384615e-02, 2.727272727273e-03
1604, 1.714285714286e-03, -1.384615384615e-02, 2.727272727273e-03
1605, 2.857142857143e-03, -1.384615384615e-02, 2.727272727273e-03
1606, 4.000000000000e-03, -1.384615384615e-02, 2.727272727273e-03
1607, 5.142857142857e-03, -1.384615384615e-02, 2.727272727273e-03
1608, 6.285714285714e-03, -1.384615384615e-02, 2.727272727273e-03
1609, 7.428571428571e-03, -1.384615384615e-02, 2.727272727273e-03
1610, 8.571428571429e-03, -1.384615384615e-02, 2.727272727273e-03
1611, 9.714285714286e-03, -1.384615384615e-02, 2.727272727273e-03
1612, 1.085714285714e-02, -1.384615384615e-02, 2.727272727273e-03
1613, 1.200000000000e-02, -1.384615384615e-02, 2.727272727273e-03
1614, 1.314285714286e-02, -1.384615384615e-02, 2.727272727273e-03
1615, 1.428571428571e-02, -1.384615384615e-02, 2.727272727273e-03
1616, 1.542857142857e-02, -1.384615384615e-02, 2.727272727273e-03
1617, 1.657142857143e-02, -1.384615384615e-02, 2.727272727273e-03
1618, 1.771428571429e-02, -1.384615384615e-02, 2.727272727273e-03
1619, 1.885714285714e-02, -1.384615384615e-02, 2.727272727273e-03
1620, 2.000000000000e-02, -1.384615384615e-02, 2.727272727273e-03
1621, -2.000000000000e-02, -1.076923076923e-02, 2.727272727273e-03
1622, -1.885714285714e-02, -1.076923076923e-02, 2.727272727273e-03
1623, -1.771428571429e-02, -1.076923076923e-02, 2.727272727273e-03
1624, -1.657142857143e-02, -1.076923076923e-02, 2.727272727273e-03
1625, -1.542857142857e-02, -1.076923076923e-02, 2.727272727273e-03
1626, -1.428571428571e-02, -1.076923076923e-02, 2.727272727273e-03
1627, -1.314285714286e-02, -1.076923076923e-02, 2.727272727273e-03
1628, -1.200000000000e-02, -1.076923076923e-02, 2.727272727273e-03
1629, -1.085714285714e-02, -1.076923076923e-02, 2.727272727273e-03
1630, -9.714285714286e-03, -1.076923076923e-02, 2.727272727273e-03
1631, -8.571428571429e-03, -1.076923076923e-02, 2.727272727273e-03
1632, -7.428571428571e-03, -1.076923076923e-02, 2.727272727273e-03
1633, -6.285714285714e-03, -1.076923076923e-02, 2.727272727273e-03
1634, -5.142857142857e-03, -1.076923076923e-02, 2.727272727273e-03
1635, -4.000000000000e-03, -1.076923076923e-02, 2.727272727273e-03
1636, -2.857142857143e-03, -1.076923076923e-02, 2.727272727273e-03
1637, -1.714285714286e-03, -1.076923076923e-02, 2.727272727273e-03
1638, -5.714285714286e-04, -1.076923076923e-02, 2.727272727273e-03
1639, 5.714285714286e-04, -1.076923076923e-02, 2.727272727273e-03
1640, 1.714285714286e-03, -1.076923076923e-02, 2.727272727273e-03
1641, 2.857142857143e-03, -1.076923076923e-02, 2.727272727273e-03
1642, 4.000000000000e-03, -1.076923076923e-02, 2.727272727273e-03
1643, 5.142857142857e-03, -1.076923076923e-02, 2.727272727273e-03
1644, 6.285714285714e-03, -1.076923076923e-02, 2.727272727273e-03
1645, 7.428571428571e-03, -1.076923076923e-02, 2.727272727273e-03
1646, 8.571428571429e-03, -1.076923076923e-02, 2.727272727273e-03
1647, 9.714285714286e-03, -1.076923076923e-02, 2.727272727273e-03
1648, 1.085714285714e-02, -1.076923076923e-02, 2.727272727273e-03
1649, 1.200000000000e-02, -1.076923076923e-02, 2.727272727273e-03
1650, 1.314285714286e-02, -1.076923076923e-02, 2.727272727273e-03
1651, 1.428571428571e-02, -1.076923076923e-02, 2.727272727273e-03
1652, 1.542857142857e-02, -1.076923076923e-02, 2.727272727273e-03
1653, 1.657142857143e-02, -1.076923076923e-02, 2.727272727273e-03
1654, 1.771428571429e-02, -1.076923076923e-02, 2.727272727273e-03
1655, 1.885714285714e-02, -1.076923076923e-02, 2.727272727273e-03
1656, 2.000000000000e-02, -1.076923076923e-02, 2.727272727273e-03
1657, -2.000000000000e-02, -7.692307692308e-03, 2.727272727273e-03
1658, -1.885714285714e-02, -7.692307692308e-03, 2.727272727273e-03
1659, -1.771428571429e-02, -7.692307692308e-03, 2.727272727273e-03
1660, -1.657142857143e-02, -7.692307692308e-03, 2.727272727273e-03
1661, -1.542857142857e-02, -7.692307692308e-03, 2.727272727273e-03
1662, -1.428571428571e-02, -7.692307692308e-03, 2.727272727273e-03
1663, -1.314285714286e-02, -7.692307692308e-03, 2.727272727273e-03
1664, -1.200000000000e-02, -7.692307692308e-03, 2.727272727273e-03
1665, -1.085714285714e-02, -7.692307692308e-03, 2.727272727273e-03
1666, -9.714285714286e-03, -7.692307692308e-03, 2.727272727273e-03
1667, -8.571428571429e-03, -7.692307692308e-03, 2.727272727273e-03
1668, -7.428571428571e-03, -7.692307692308e-03, 2.727272727273e-03
1669, -6.285714285714e-03, -7.692307692308e-03, 2.727272727273e-03
1670, -5.142857142857e-03, -7.692307692308e-03, 2.727272727273e-03
1671, -4.000000000000e-03, -7.692307692308e-03, 2.727272727273e-03
1672, -2.857142857143e-03, -7.692307692308e-03, 2.727272727273e-03
1673, -1.714285714286e-03, -7.692307692308e-03, 2.727272727273e-03
1674, -5.714285714286e-04, -7.692307692308e-03, 2.727272727273e-03
1675, 5.714285714286e-04, -7.692307692308e-03, 2.727272727273e-03
1676, 1.714285714286e-03, -7.692307692308e-03, 2.727272727273e-03
1677, 2.857142857143e-03, -7.692307692308e-03, 2.727272727273e-03
1678, 4.000000000000e-03, -7.692307692308e-03, 2.727272727273e-03
1679, 5.142857142857e-03, -7.692307692308e-03, 2.727272727273e-03
1680, 6.285714285714e-03, -7.692307692308e-03, 2.727272727273e-03
1681, 7.428571428571e-03, -7.692307692308e-03, 2.727272727273e-03
1682, 8.571428571429e-03, -7.692307692308e-03, 2.727272727273e-03
1683, 9.714285714286e-03, -7.692307692308e-03, 2.727272727273e-03
1684, 1.085714285714e-02, -7.692307692308e-03, 2.727272727273e-03
1685, 1.200000000000e-02, -7.692307692308e-03, 2.727272727273e-03
1686, 1.314285714286e-02, -7.692307692308e-03, 2.727272727273e-03
1687, 1.428571428571e-02, -7.692307692308e-03, 2.727272727273e-03
1688, 1.542857142857e-02, -7.692307692308e-03, 2.727272727273e-03
1689, 1.657142857143e-02, -7.692307692308e-03, 2.727272727273e-03
1690, 1.771428571429e-02, -7.692307692308e-03, 2.727272727273e-03
1691, 1.885714285714e-02, -7.692307692308e-03, 2.727272727273e-03
1692, 2.000000000000e-02, -7.692307692308e-03, 2.727272727273e-03
1693, -2.000000000000e-02, -4.615384615385e-03, 2.727272727273e-03
1694, -1.885714285714e-02, -4.615384615385e-03, 2.727272727273e-03
1695, -1.771428571429e-02, -4.615384615385e-03, 2.727272727273e-03
1696, -1.657142857143e-02, -4.615384615385e-03, 2.727272727273e-03
1697, -1.542857142857e-02, -4.615384615385e-03, 2.727272727273e-03
1698, -1.428571428571e-02, -4.615384615385e-03, 2.727272727273e-03
1699, -1.314285714286e-02, -4.615384615385e-03, 2.727272727273e-03
1700, -1.200000000000e-02, -4.615384615385e-03, 2.727272727273e-03
1701, -1.085714285714e-02, -4.615384615385e-03, 2.727272727273e-03
1702, -9.714285714286e-03, -4.615384615385e-03, 2.727272727273e-03
1703, -8.571428571429e-03, -4.615384615385e-03, 2.727272727273e-03
1704, -7.428571428571e-03, -4.615384615385e-03, 2.727272727273e-03
1705, -6.285714285714e-03, -4.615384615385e-03, 2.727272727273e-03
1706, -5.142857142857e-03, -4.615384615385e-03, 2.727272727273e-03
1707, -4.000000000000e-03, -4.615384615385e-03, 2.727272727273e-03
1708, -2.857142857143e-03, -4.615384615385e-03, 2.727272727273e-03
1709, -1.714285714286e-03, -4.615384615385e-03, 2.727272727273e-03
1710, -5.714285714286e-04, -4.615384615385e-03, 2.727272727273e-03
1711, 5.714285714286e-04, -4.615384615385e-03, 2.727272727273e-03
1712, 1.714285714286e-03, -4.615384615385e-03, 2.727272727273e-03
1713, 2.857142857143e-03, -4.615384615385e-03, 2.727272727273e-03
1714, 4.000000000000e-03, -4.615384615385e-03, 2.727272727273e-03
1715, 5.142857142857e-03, -4.615384615385e-03, 2.727272727273e-03
1716, 6.285714285714e-03, -4.615384615385e-03, 2.727272727273e-03
1717, 7.428571428571e-03, -4.615384615385e-03, 2.727272727273e-03
1718, 8.571428571429e-03, -4.615384615385e-03, 2.727272727273e-03
1719, 9.714285714286e-03, -4.615384615385e-03, 2.727272727273e-03
1720, 1.085714285714e-02, -4.615384615385e-03, 2.727272727273e-03
1721, 1.200000000000e-02, -4.615384615385e-03, 2.727272727273e-03
1722, 1.314285714286e-02, -4.615384615385e-03, 2.727272727273e-03
1723, 1.428571428571e-02, -4.615384615385e-03, 2.727272727273e-03
1724, 1.542857142857e-02, -4.615384615385e-03, 2.727272727273e-03
1725, 1.657142857143e-02, -4.615384615385e-03, 2.727272727273e-03
1726, 1.771428571429e-02, -4.615384615385e-03, 2.727272727273e-03
1727, 1.885714285714e-02, -4.615384615385e-03, 2.727272727273e-03
1728, 2.000000000000e-02, -4.615384615385e-03, 2.727272727273e-03
1729, -2.000000000000e-02, -1.538461538462e-03, 2.727272727273e-03
1730, -1.885714285714e-02, -1.538461538462e-03, 2.727272727273e-03
1731, -1.771428571429e-02, -1.538461538462e-03, 2.727272727273e-03
1732, -1.657142857143e-02, -1.538461538462e-03, 2.727272727273e-03
1733, -1.542857142857e-02, -1.538461538462e-03, 2.727272727273e-03
1734, -1.428571428571e-02, -1.538461538462e-03, 2.727272727273e-03
1735, -1.314285714286e-02, -1.538461538462e-03, 2.727272727273e-03
1736, -1.200000000000e-02, -1.538461538462e-03, 2.727272727273e-03
1737, -1.085714285714e-02, -1.538461538462e-03, 2.727272727273e-03
1738, -9.714285714286e-03, -1.538461538462e-03, 2.727272727273e-03
1739, -8.571428571429e-03, -1.538461538462e-03, 2.727272727273e-03
1740, -7.428571428571e-03, -1.538461538462e-03, 2.727272727273e-03
1741, -6.285714285714e-03, -1.538461538462e-03, 2.727272727273e-03
1742, -5.142857142857e-03, -1.538461538462e-03, 2.727272727273e-03
1743, -4.000000000000e-03, -1.538461538462e-03, 2.727272727273e-03
1744, -2.857142857143e-03, -1.538461538462e-03, 2.727272727273e-03
1745, -1.714285714286e-03, -1.538461538462e-03, 2.727272727273e-03
1746, -5.714285714286e-04, -1.538461538462e-03, 2.727272727273e-03
1747, 5.714285714286e-04, -1.538461538462e-03, 2.727272727273e-03
1748, 1.714285714286e-03, -1.538461538462e-03, 2.727272727273e-03
1749, 2.857142857143e-03, -1.538461538462e-03, 2.727272727273e-03
1750, 4.000000000000e-03, -1.538461538462e-03, 2.727272727273e-03
1751, 5.142857142857e-03, -1.538461538462e-03, 2.727272727273e-03
1752, 6.285714285714e-03, -1.538461538462e-03, 2.727272727273e-03
1753, 7.428571428571e-03, -1.538461538462e-03, 2.727272727273e-03
1754, 8.571428571429e-03, -1.538461538462e-03, 2.727272727273e-03
1755, 9.714285714286e-03, -1.538461538462e-03, 2.727272727273e-03
1756, 1.085714285714e-02, -1.538461538462e-03, 2.727272727273e-03
1757, 1.200000000000e-02, -1.538461538462e-03, 2.727272727273e-03
1758, 1.314285714286e-02, -1.538461538462e-03, 2.727272727273e-03
1759, 1.428571428571e-02, -1.538461538462e-03, 2.727272727273e-03
1760, 1.542857142857e-02, -1.538461538462e-03, 2.727272727273e-03
1761, 1.657142857143e-02, -1.538461538462e-03, 2.727272727273e-03
1762, 1.771428571429e-02, -1.538461538462e-03, 2.727272727273e-03
1763, 1.885714285714e-02, -1.538461538462e-03, 2.727272727273e-03
1764, 2.000000000000e-02, -1.538461538462e-03, 2.727272727273e-03
1765, -2.000000000000e-02, 1.538461538462e-03, 2.727272727273e-03
1766, -1.885714285714e-02, 1.538461538462e-03, 2.727272727273e-03
1767, -1.771428571429e-02, 1.538461538462e-03, 2.727272727273e-03
1768, -1.657142857143e-02, 1.538461538462e-03, 2.727272727273e-03
1769, -1.542857142857e-02, 1.538461538462e-03, 2.727272727273e-03
1770, -1.428571428571e-02, 1.538461538462e-03, 2.727272727273e-03
1771, -1.314285714286e-02, 1.538461538462e-03, 2.727272727273e-03
1772, -1.200000000000e-02, 1.538461538462e-03, 2.727272727273e-03
1773, -1.085714285714e-02, 1.538461538462e-03, 2.727272727273e-03
1774, -9.714285714286e-03, 1.538461538462e-03, 2.727272727273e-03
1775, -8.571428571429e-03, 1.538461538462e-03, 2.727272727273e-03
1776, -7.428571428571e-03, 1.538461538462e-03, 2.727272727273e-03
1777, -6.285714285714e-03, 1.538461538462e-03, 2.727272727273e-03
1778, -5.142857142857e-03, 1.538461538462e-03, 2.727272727273e-03
1779, -4.000000000000e-03, 1.538461538462e-03, 2.727272727273e-03
1780, -2.857142857143e-03, 1.538461538462e-03, 2.727272727273e-03
1781, -1.714285714286e-03, 1.538461538462e-03, 2.727272727273e-03
1782, -5.714285714286e-04, 1.538461538462e-03, 2.727272727273e-03
1783, 5.714285714286e-04, 1.538461538462e-03, 2.727272727273e-03
1784, 1.714285714286e-03, 1.538461538462e-03, 2.727272727273e-03
1785, 2.857142857143e-03, 1.538461538462e-03, 2.727272727273e-03
1786, 4.000000000000e-03, 1.538461538462e-03, 2.727272727273e-03
1787, 5.142857142857e-03, 1.538461538462e-03, 2.727272727273e-03
1788, 6.285714285714e-03, 1.538461538462e-03, 2.727272727273e-03
1789, 7.428571428571e-03, 1.538461538462e-03, 2.727272727273e-03
1790, 8.571428571429e-03, 1.538461538462e-03, 2.727272727273e-03
1791, 9.714285714286e-03, 1.538461538462e-03, 2.727272727273e-03
1792, 1.085714285714e-02, 1.538461538462e-03, 2.727272727273e-03
1793, 1.200000000000e-02, 1.538461538462e-03, 2.727272727273e-03
1794, 1.314285714286e-02, 1.538461538462e-03, 2.727272727273e-03
1795, 1.428571428571e-02, 1.538461538462e-03, 2.727272727273e-03
1796, 1.542857142857e-02, 1.538461538462e-03, 2.727272727273e-03
1797, 1.657142857143e-02, 1.538461538462e-03, 2.727272727273e-03
1798, 1.771428571429e-02, 1.538461538462e-03, 2.727272727273e-03
1799, 1.885714285714e-02, 1.538461538462e-03, 2.727272727273e-03
1800, 2.000000000000e-02, 1.538461538462e-03, 2.727272727273e-03
1801, -2.000000000000e-02, 4.615384615385e-03, 2.727272727273e-03
1802, -1.885714285714e-02, 4.615384615385e-03, 2.727272727273e-03
1803, -1.771428571429e-02, 4.615384615385e-03, 2.727272727273e-03
1804, -1.657142857143e-02, 4.615384615385e-03, 2.727272727273e-03
1805, -1.542857142857e-02, 4.615384615385e-03, 2.727272727273e-03
1806, -1.428571428571e-02, 4.615384615385e-03, 2.727272727273e-03
1807, -1.314285714286e-02, 4.615384615385e-03, 2.727272727273e-03
1808, -1.200000000000e-02, 4.615384615385e-03, 2.727272727273e-03
1809, -1.085714285714e-02, 4.615384615385e-03, 2.727272727273e-03
1810, -9.714285714286e-03, 4.615384615385e-03, 2.727272727273e-03
1811, -8.571428571429e-03, 4.615384615385e-03, 2.727272727273e-03
1812, -7.428571428571e-03, 4.615384615385e-03, 2.727272727273e-03
1813, -6.285714285714e-03, 4.615384615385e-03, 2.727272727273e-03
1814, -5.142857142857e-03, 4.615384615385e-03, 2.727272727273e-03
1815, -4.000000000000e-03, 4.615384615385e-03, 2.727272727273e-03
1816, -2.857142857143e-03, 4.615384615385e-03, 2.727272727273e-03
1817, -1.714285714286e-03, 4.615384615385e-03, 2.727272727273e-03
1818, -5.714285714286e-04, 4.615384615385e-03, 2.727272727273e-03
1819, 5.714285714286e-04, 4.615384615385e-03, 2.727272727273e-03
1820, 1.714285714286e-03, 4.615384615385e-03, 2.727272727273e-03
1821, 2.857142857143e-03, 4.615384615385e-03, 2.727272727273e-03
1822, 4.000000000000e-03, 4.615384615385e-03, 2.727272727273e-03
1823, 5.142857142857e-03, 4.615384615385e-03, 2.727272727273e-03
1824, 6.285714285714e-03, 4.615384615385e-03, 2.727272727273e-03
1825, 7.428571428571e-03, 4.615384615385e-03, 2.727272727273e-03
1826, 8.571428571429e-03, 4.615384615385e-03, 2.727272727273e-03
1827, 9.714285714286e-03, 4.615384615385e-03, 2.727272727273e-03
1828, 1.085714285714e-02, 4.615384615385e-03, 2.727272727273e-03
1829, 1.200000000000e-02, 4.615384615385e-03, 2.727272727273e-03
1830, 1.314285714286e-02, 4.615384615385e-03, 2.727272727273e-03
1831, 1.428571428571e-02, 4.615384615385e-03, 2.727272727273e-03
1832, 1.542857142857e-02, 4.615384615385e-03, 2.727272727273e-03
1833, 1.657142857143e-02, 4.615384615385e-03, 2.727272727273e-03
1834, 1.771428571429e-02, 4.615384615385e-03, 2.727272727273e-03
1835, 1.885714285714e-02, 4.615384615385e-03, 2.727272727273e-03
1836, 2.000000000000e-02, 4.615384615385e-03, 2.727272727273e-03
1837, -2.000000000000e-02, 7.692307692308e-03, 2.727272727273e-03
1838, -1.885714285714e-02, 7.692307692308e-03, 2.727272727273e-03
1839, -1.771428571429e-02, 7.692307692308e-03, 2.727272727273e-03
1840, -1.657142857143e-02, 7.692307692308e-03, 2.727272727273e-03
1841, -1.542857142857e-02, 7.692307692308e-03, 2.727272727273e-03
1842, -1.428571428571e-02, 7.692307692308e-03, 2.727272727273e-03
1843, -1.314285714286e-02, 7.692307692308e-03, 2.727272727273e-03
1844, -1.200000000000e-02, 7.692307692308e-03, 2.727272727273e-03
1845, -1.085714285714e-02, 7.692307692308e-03, 2.727272727273e-03
1846, -9.714285714286e-03, 7.692307692308e-03, 2.727272727273e-03
1847, -8.571428571429e-03, 7.692307692308e-03, 2.727272727273e-03
1848, -7.428571428571e-03, 7.692307692308e-03, 2.727272727273e-03
1849, -6.285714285714e-03, 7.692307692308e-03, 2.727272727273e-03
1850, -5.142857142857e-03, 7.692307692308e-03, 2.727272727273e-03
1851, -4.000000000000e-03, 7.692307692308e-03, 2.727272727273e-03
1852, -2.857142857143e-03, 7.692307692308e-03, 2.727272727273e-03
1853, -1.714285714286e-03, 7.692307692308e-03, 2.727272727273e-03
1854, -5.714285714286e-04, 7.692307692308e-03, 2.727272727273e-03
1855, 5.714285714286e-04, 7.692307692308e-03, 2.727272727273e-03
1856, 1.714285714286e-03, 7.692307692308e-03, 2.727272727273e-03
1857, 2.857142857143e-03, 7.692307692308e-03, 2.727272727273e-03
1858, 4.000000000000e-03, 7.692307692308e-03, 2.727272727273e-03
1859, 5.142857142857e-03, 7.692307692308e-03, 2.727272727273e-03
1860, 6.285714285714e-03, 7.692307692308e-03, 2.727272727273e-03
1861, 7.428571428571e-03, 7.692307692308e-03, 2.727272727273e-03
1862, 8.571428571429e-03, 7.692307692308e-03, 2.727272727273e-03
1863, 9.714285714286e-03, 7.692307692308e-03, 2.727272727273e-03
1864, 1.085714285714e-02, 7.692307692308e-03, 2.727272727273e-03
1865, 1.200000000000e-02, 7.692307692308e-03, 2.727272727273e-03
1866, 1.314285714286e-02, 7.692307692308e-03, 2.727272727273e-03
1867, 1.428571428571e-02, 7.692307692308e-03, 2.727272727273e-03
1868, 1.542857142857e-02, 7.692307692308e-03, 2.727272727273e-03
1869, 1.657142857143e-02, 7.692307692308e-03, 2.727272727273e-03
1870, 1.771428571429e-02, 7.692307692308e-03, 2.727272727273e-03
1871, 1.885714285714e-02, 7.692307692308e-03, 2.727272727273e-03
1872, 2.000000000000e-02, 7.692307692308e-03, 2.727272727273e-03
1873, -2.000000000000e-02, 1.076923076923e-02, 2.727272727273e-03
1874, -1.885714285714e-02, 1.076923076923e-02, 2.727272727273e-03
1875, -1.771428571429e-02, 1.076923076923e-02, 2.727272727273e-03
1876, -1.657142857143e-02, 1.076923076923e-02, 2.727272727273e-03
1877, -1.542857142857e-02, 1.076923076923e-02, 2.727272727273e-03
1878, -1.428571428571e-02, 1.076923076923e-02, 2.727272727273e-03
1879, -1.314285714286e-02, 1.076923076923e-02, 2.727272727273e-03
1880, -1.200000000000e-02, 1.076923076923e-02, 2.727272727273e-03
1881, -1.085714285714e-02, 1.076923076923e-02, 2.727272727273e-03
1882, -9.714285714286e-03, 1.076923076923e-02, 2.727272727273e-03
1883, -8.571428571429e-03, 1.076923076923e-02, 2.727272727273e-03
1884, -7.428571428571e-03, 1.076923076923e-02, 2.727272727273e-03
1885, -6.285714285714e-03, 1.076923076923e-02, 2.727272727273e-03
1886, -5.142857142857e-03, 1.076923076923e-02, 2.727272727273e-03
1887, -4.000000000000e-03, 1.076923076923e-02, 2.727272727273e-03
1888, -2.857142857143e-03, 1.076923076923e-02, 2.727272727273e-03
1889, -1.714285714286e-03, 1.076923076923e-02, 2.727272727273e-03
1890, -5.714285714286e-04, 1.076923076923e-02, 2.727272727273e-03
1891, 5.714285714286e-04, 1.076923076923e-02, 2.727272727273e-03
1892, 1.714285714286e-03, 1.076923076923e-02, 2.727272727273e-03
1893, 2.857142857143e-03, 1.076923076923e-02, 2.727272727273e-03
1894, 4.000000000000e-03, 1.076923076923e-02, 2.727272727273e-03
1895, 5.142857142857e-03, 1.076923076923e-02, 2.727272727273e-03
1896, 6.285714285714e-03, 1.076923076923e-02, 2.727272727273e-03
1897, 7.428571428571e-03, 1.076923076923e-02, 2.727272727273e-03
1898, 8.571428571429e-03, 1.076923076923e-02, 2.727272727273e-03
1899, 9.714285714286e-03, 1.076923076923e-02, 2.727272727273e-03
1900, 1.085714285714e-02, 1.076923076923e-02, 2.727272727273e-03
1901, 1.200000000000e-02, 1.076923076923e-02, 2.727272727273e-03
1902, 1.314285714286e-02, 1.076923076923e-02, 2.727272727273e-03
1903, 1.428571428571e-02, 1.076923076923e-02, 2.727272727273e-03
1904, 1.542857142857e-02, 1.076923076923e-02, 2.727272727273e-03
1905, 1.657142857143e-02, 1.076923076923e-02, 2.727272727273e-03
1906, 1.771428571429e-02, 1.076923076923e-02, 2.727272727273e-03
1907, 1.885714285714e-02, 1.076923076923e-02, 2.727272727273e-03
1908, 2.000000000000e-02, 1.076923076923e-02, 2.727272727273e-03
1909, -2.000000000000e-02, 1.384615384615e-02, 2.727272727273e-03
1910, -1.885714285714e-02, 1.384615384615e-02, 2.727272727273e-03
1911, -1.771428571429e-02, 1.384615384615e-02, 2.727272727273e-03
1912, -1.657142857143e-02, 1.384615384615e-02, 2.727272727273e-03
1913, -1.542857142857e-02, 1.384615384615e-02, 2.727272727273e-03
1914, -1.428571428571e-02, 1.384615384615e-02, 2.727272727273e-03
1915, -1.314285714286e-02, 1.384615384615e-02, 2.727272727273e-03
1916, -1.200000000000e-02, 1.384615384615e-02, 2.727272727273e-03
1917, -1.085714285714e-02, 1.384615384615e-02, 2.727272727273e-03
1918, -9.714285714286e-03, 1.384615384615e-02, 2.727272727273e-03
1919, -8.571428571429e-03, 1.384615384615e-02, 2.727272727273e-03
1920, -7.428571428571e-03, 1.384615384615e-02, 2.727272727273e-03
1921, -6.285714285714e-03, 1.384615384615e-02, 2.727272727273e-03
1922, -5.142857142857e-03, 1.384615384615e-02, 2.727272727273e-03
1923, -4.000000000000e-03, 1.384615384615e-02, 2.727272727273e-03
1924, -2.857142857143e-03, 1.384615384615e-02, 2.727272727273e-03
1925, -1.714285714286e-03, 1.384615384615e-02, 2.727272727273e-03
1926, -5.714285714286e-04, 1.384615384615e-02, 2.727272727273e-03
1927, 5.714285714286e-04, 1.384615384615e-02, 2.727272727273e-03
1928, 1.714285714286e-03, 1.384615384615e-02, 2.727272727273e-03
1929, 2.857142857143e-03, 1.384615384615e-02, 2.727272727273e-03
1930, 4.000000000000e-03, 1.384615384615e-02, 2.727272727273e-03
1931, 5.142857142857e-03, 1.384615384615e-02, 2.727272727273e-03
1932, 6.285714285714e-03, 1.384615384615e-02, 2.727272727273e-03
1933, 7.428571428571e-03, 1.384615384615e-02, 2.727272727273e-03
1934, 8.571428571429e-03, 1.384615384615e-02, 2.727272727273e-03
1935, 9.714285714286e-03, 1.384615384615e-02, 2.727272727273e-03
1936, 1.085714285714e-02, 1.384615384615e-02, 2.727272727273e-03
1937, 1.200000000000e-02, 1.384615384615e-02, 2.727272727273e-03
1938, 1.314285714286e-02, 1.384615384615e-02, 2.727272727273e-03
1939, 1.428571428571e-02, 1.384615384615e-02, 2.727272727273e-03
1940, 1.542857142857e-02, 1.384615384615e-02, 2.727272727273e-03
1941, 1.657142857143e-02, 1.384615384615e-02, 2.727272727273e-03
1942, 1.771428571429e-02, 1.384615384615e-02, 2.727272727273e-03
1943, 1.885714285714e-02, 1.384615384615e-02, 2.727272727273e-03
1944, 2.000000000000e-02, 1.384615384615e-02, 2.727272727273e-03
1945, -2.000000000000e-02, 1.692307692308e-02, 2.727272727273e-03
1946, -1.885714285714e-02, 1.692307692308e-02, 2.727272727273e-03
1947, -1.771428571429e-02, 1.692307692308e-02, 2.727272727273e-03
1948, -1.657142857143e-02, 1.692307692308e-02, 2.727272727273e-03
1949, -1.542857142857e-02, 1.692307692308e-02, 2.727272727273e-03
1950, -1.428571428571e-02, 1.692307692308e-02, 2.727272727273e-03
1951, -1.314285714286e-02, 1.692307692308e-02, 2.727272727273e-03
1952, -1.200000000000e-02, 1.692307692308e-02, 2.727272727273e-03
1953, -1.085714285714e-02, 1.692307692308e-02, 2.727272727273e-03
1954, -9.714285714286e-03, 1.692307692308e-02, 2.727272727273e-03
1955, -8.571428571429e-03, 1.692307692308e-02, 2.727272727273e-03
1956, -7.428571428571e-03, 1.692307692308e-02, 2.727272727273e-03
1957, -6.285714285714e-03, 1.692307692308e-02, 2.727272727273e-03
1958, -5.142857142857e-03, 1.692307692308e-02, 2.727272727273e-03
1959, -4.000000000000e-03, 1.692307692308e-02, 2.727272727273e-03
1960, -2.857142857143e-03, 1.692307692308e-02, 2.727272727273e-03
1961, -1.714285714286e-03, 1.692307692308e-02, 2.727272727273e-03
1962, -5.714285714286e-04, 1.692307692308e-02, 2.727272727273e-03
1963, 5.714285714286e-04, 1.692307692308e-02, 2.727272727273e-03
1964, 1.714285714286e-03, 1.692307692308e-02, 2.727272727273e-03
1965, 2.857142857143e-03, 1.692307692308e-02, 2.727272727273e-03
1966, 4.000000000000e-03, 1.692307692308e-02, 2.727272727273e-03
1967, 5.142857142857e-03, 1.692307692308e-02, 2.727272727273e-03
1968, 6.285714285714e-03, 1.692307692308e-02, 2.727272727273e-03
1969, 7.428571428571e-03, 1.692307692308e-02, 2.727272727273e-03
1970, 8.571428571429e-03, 1.692307692308e-02, 2.727272727273e-03
1971, 9.714285714286e-03, 1.692307692308e-02, 2.727272727273e-03
1972, 1.085714285714e-02, 1.692307692308e-02, 2.727272727273e-03
1973, 1.200000000000e-02, 1.692307692308e-02, 2.727272727273e-03
1974, 1.314285714286e-02, 1.692307692308e-02, 2.727272727273e-03
1975, 1.428571428571e-02, 1.692307692308e-02, 2.727272727273e-03
1976, 1.542857142857e-02, 1.692307692308e-02, 2.727272727273e-03
1977, 1.657142857143e-02, 1.692307692308e-02, 2.727272727273e-03
1978, 1.771428571429e-02, 1.692307692308e-02, 2.727272727273e-03
1979, 1.885714285714e-02, 1.692307692308e-02, 2.727272727273e-03
1980, 2.000000000000e-02, 1.692307692308e-02, 2.727272727273e-03
1981, -2.000000000000e-02, 2.000000000000e-02, 2.727272727273e-03
1982, -1.885714285714e-02, 2.000000000000e-02, 2.727272727273e-03
1983, -1.771428571429e-02, 2.000000000000e-02, 2.727272727273e-03
1984, -1.657142857143e-02, 2.000000000000e-02, 2.727272727273e-03
1985, -1.542857142857e-02, 2.000000000000e-02, 2.727272727273e-03
1986, -1.428571428571e-02, 2.000000000000e-02, 2.727272727273e-03
1987, -1.314285714286e-02, 2.000000000000e-02, 2.727272727273e-03
1988, -1.200000000000e-02, 2.000000000000e-02, 2.727272727273e-03
1989, -1.085714285714e-02, 2.000000000000e-02, 2.727272727273e-03
1990, -9.714285714286e-03, 2.000000000000e-02, 2.727272727273e-03
1991, -8.571428571429e-03, 2.000000000000e-02, 2.727272727273e-03
1992, -7.428571428571e-03, 2.000000000000e-02, 2.727272727273e-03
1993, -6.285714285714e-03, 2.000000000000e-02, 2.727272727273e-03
1994, -5.142857142857e-03, 2.000000000000e-02, 2.727272727273e-03
1995, -4.000000000000e-03, 2.000000000000e-02, 2.727272727273e-03
1996, -2.857142857143e-03, 2.000000000000e-02, 2.727272727273e-03
1997, -1.714285714286e-03, 2.000000000000e-02, 2.727272727273e-03
1998, -5.714285714286e-04, 2.000000000000e-02, 2.727272727273e-03
1999, 5.714285714286e-04, 2.000000000000e-02, 2.727272727273e-03
2000, 1.714285714286e-03, 2.000000000000e-02, 2.727272727273e-03
2001, 2.857142857143e-03, 2.000000000000e-02, 2.727272727273e-03
2002, 4.000000000000e-03, 2.000000000000e-02, 2.727272727273e-03
2003, 5.142857142857e-03, 2.000000000000e-02, 2.727272727273e-03
2004, 6.285714285714e-03, 2.000000000000e-02, 2.727272727273e-03
2005, 7.428571428571e-03, 2.000000000000e-02, 2.727272727273e-03
2006, 8.571428571429e-03, 2.000000000000e-02, 2.727272727273e-03
2007, 9.714285714286e-03, 2.000000000000e-02, 2.727272727273e-03
2008, 1.085714285714e-02, 2.000000000000e-02, 2.727272727273e-03
2009, 1.200000000000e-02, 2.000000000000e-02, 2.727272727273e-03
2010, 1.314285714286e-02, 2.000000000000e-02, 2.727272727273e-03
2011, 1.428571428571e-02, 2.000000000000e-02, 2.727272727273e-03
2012, 1.542857142857e-02, 2.000000000000e-02, 2.727272727273e-03
2013, 1.657142857143e-02, 2.000000000000e-02, 2.727272727273e-03
2014, 1.771428571429e-02, 2.000000000000e-02, 2.727272727273e-03
2015, 1.885714285714e-02, 2.000000000000e-02, 2.727272727273e-03
2016, 2.000000000000e-02, 2.000000000000e-02, 2.727272727273e-03
2017, -2.000000000000e-02, -2.000000000000e-02, 3.636363636364e-03
2018, -1.885714285714e-02, -2.000000000000e-02, 3.636363636364e-03
2019, -1.771428571429e-02, -2.000000000000e-02, 3.636363636364e-03
2020, -1.657142857143e-02, -2.000000000000e-02, 3.636363636364e-03
2021, -1.542857142857e-02, -2.000000000000e-02, 3.636363636364e-03
2022, -1.428571428571e-02, -2.000000000000e-02, 3.636363636364e-03
2023, -1.314285714286e-02, -2.000000000000e-02, 3.636363636364e-03
2024, -1.200000000000e-02, -2.000000000000e-02, 3.636363636364e-03
2025, -1.085714285714e-02, -2.000000000000e-02, 3.636363636364e-03
2026, -9.714285714286e-03, -2.000000000000e-02, 3.636363636364e-03
2027, -8.571428571429e-03, -2.000000000000e-02, 3.636363636364e-03
2028, -7.428571428571e-03, -2.000000000000e-02, 3.636363636364e-03
2029, -6.285714285714e-03, -2.000000000000e-02, 3.636363636364e-03
2030, -5.142857142857e-03, -2.000000000000e-02, 3.636363636364e-03
2031, -4.000000000000e-03, -2.000000000000e-02, 3.636363636364e-03
2032, -2.857142857143e-03, -2.000000000000e-02, 3.636363636364e-03
2033, -1.714285714286e-03, -2.000000000000e-02, 3.636363636364e-03
2034, -5.714285714286e-04, -2.000000000000e-02, 3.636363636364e-03
2035, 5.714285714286e-04, -2.000000000000e-02, 3.636363636364e-03
2036, 1.714285714286e-03, -2.000000000000e-02, 3.636363636364e-03
2037, 2.857142857143e-03, -2.000000000000e-02, 3.636363636364e-03
2038, 4.000000000000e-03, -2.000000000000e-02, 3.636363636364e-03
2039, 5.142857142857e-03, -2.000000000000e-02, 3.636363636364e-03
2040, 6.285714285714e-03, -2.000000000000e-02, 3.636363636364e-03
2041, 7.428571428571e-03, -2.000000000000e-02, 3.636363636364e-03
2042, 8.571428571429e-03, -2.000000000000e-02, 3.636363636364e-03
2043, 9.714285714286e-03, -2.000000000000e-02, 3.636363636364e-03
2044, 1.085714285714e-02, -2.000000000000e-02, 3.636363636364e-03
2045, 1.200000000000e-02, -2.000000000000e-02, 3.636363636364e-03
2046, 1.314285714286e-02, -2.000000000000e-02, 3.636363636364e-03
2047, 1.428571428571e-02, -2.000000000000e-02, 3.636363636364e-03
2048, 1.542857142857e-02, -2.000000000000e-02, 3.636363636364e-03
2049, 1.657142857143e-02, -2.000000000000e-02, 3.636363636364e-03
2050, 1.771428571429e-02, -2.000000000000e-02, 3.636363636364e-03
2051, 1.885714285714e-02, -2.000000000000e-02, 3.636363636364e-03
2052, 2.000000000000e-02, -2.000000000000e-02, 3.636363636364e-03
2053, -2.000000000000e-02, -1.692307692308e-02, 3.636363636364e-03
2054, -1.885714285714e-02, -1.692307692308e-02, 3.636363636364e-03
2055, -1.771428571429e-02, -1.692307692308e-02, 3.636363636364e-03
2056, -1.657142857143e-02, -1.692307692308e-02, 3.636363636364e-03
2057, -1.542857142857e-02, -1.692307692308e-02, 3.636363636364e-03
2058, -1.428571428571e-02, -1.692307692308e-02, 3.636363636364e-03
2059, -1.314285714286e-02, -1.692307692308e-02, 3.636363636364e-03
2060, -1.200000000000e-02, -1.692307692308e-02, 3.636363636364e-03
2061, -1.085714285714e-02, -1.692307692308e-02, 3.636363636364e-03
2062, -9.714285714286e-03, -1.692307692308e-02, 3.636363636364e-03
2063, -8.571428571429e-03, -1.692307692308e-02, 3.636363636364e-03
2064, -7.428571428571e-03, -1.692307692308e-02, 3.636363636364e-03
2065, -6.285714285714e-03, -1.692307692308e-02, 3.636363636364e-03
2066, -5.142857142857e-03, -1.692307692308e-02, 3.636363636364e-03
2067, -4.000000000000e-03, -1.692307692308e-02, 3.636363636364e-03
2068, -2.857142857143e-03, -1.692307692308e-02, 3.636363636364e-03
2069, -1.714285714286e-03, -1.692307692308e-02, 3.636363636364e-03
2070, -5.714285714286e-04, -1.692307692308e-02, 3.636363636364e-03
2071, 5.714285714286e-04, -1.692307692308e-02, 3.636363636364e-03
2072, 1.714285714286e-03, -1.692307692308e-02, 3.636363636364e-03
2073, 2.857142857143e-03, -1.692307692308e-02, 3.636363636364e-03
2074, 4.000000000000e-03, -1.692307692308e-02, 3.636363636364e-03
2075, 5.142857142857e-03, -1.692307692308e-02, 3.636363636364e-03
2076, 6.285714285714e-03, -1.692307692308e-02, 3.636363636364e-03
2077, 7.428571428571e-03, -1.692307692308e-02, 3.636363636364e-03
2078, 8.571428571429e-03, -1.692307692308e-02, 3.636363636364e-03
2079, 9.714285714286e-03, -1.692307692308e-02, 3.636363636364e-03
2080, 1.085714285714e-02, -1.692307692308e-02, 3.636363636364e-03
2081, 1.200000000000e-02, -1.692307692308e-02, 3.636363636364e-03
2082, 1.314285714286e-02, -1.692307692308e-02, 3.636363636364e-03
2083, 1.428571428571e-02, -1.692307692308e-02, 3.636363636364e-03
2084, 1.542857142857e-02, -1.692307692308e-02, 3.636363636364e-03
2085, 1.657142857143e-02, -1.692307692308e-02, 3.636363636364e-03
2086, 1.771428571429e-02, -1.692307692308e-02, 3.636363636364e-03
2087, 1.885714285714e-02, -1.692307692308e-02, 3.636363636364e-03
2088, 2.000000000000e-02, -1.692307692308e-02, 3.636363636364e-03
2089, -2.000000000000e-02, -1.384615384615e-02, 3.636363636364e-03
2090, -1.885714285714e-02, -1.384615384615e-02, 3.636363636364e-03
2091, -1.771428571429e-02, -1.384615384615e-02, 3.636363636364e-03
2092, -1.657142857143e-02, -1.384615384615e-02, 3.636363636364e-03
2093, -1.542857142857e-02, -1.384615384615e-02, 3.636363636364e-03
2094, -1.428571428571e-02, -1.384615384615e-02, 3.636363636364e-03
2095, -1.314285714286e-02, -1.384615384615e-02, 3.636363636364e-03
2096, -1.200000000000e-02, -1.384615384615e-02, 3.636363636364e-03
2097, -1.085714285714e-02, -1.384615384615e-02, 3.636363636364e-03
2098, -9.714285714286e-03, -1.384615384615e-02, 3.636363636364e-03
2099, -8.571428571429e-03, -1.384615384615e-02, 3.636363636364e-03
2100, -7.428571428571e-03, -1.384615384615e-02, 3.636363636364e-03
2101, -6.285714285714e-03, -1.384615384615e-02, 3.636363636364e-03
2102, -5.142857142857e-03, -1.384615384615e-02, 3.636363636364e-03
2103, -4.000000000000e-03, -1.384615384615e-02, 3.636363636364e-03
2104, -2.857142857143e-03, -1.384615384615e-02, 3.636363636364e-03
2105, -1.714285714286e-03, -1.384615384615e-02, 3.636363636364e-03
2106, -5.714285714286e-04, -1.384615384615e-02, 3.636363636364e-03
2107, 5.714285714286e-04, -1.384615384615e-02, 3.636363636364e-03
2108, 1.714285714286e-03, -1.384615384615e-02, 3.636363636364e-03
2109, 2.857142857143e-03, -1.384615384615e-02, 3.636363636364e-03
2110, 4.000000000000e-03, -1.384615384615e-02, 3.636363636364e-03
2111, 5.142857142857e-03, -1.384615384615e-02, 3.636363636364e-03
2112, 6.285714285714e-03, -1.384615384615e-02, 3.636363636364e-03
2113, 7.428571428571e-03, -1.384615384615e-02, 3.636363636364e-03
2114, 8.571428571429e-03, -1.384615384615e-02, 3.636363636364e-03
2115, 9.714285714286e-03, -1.384615384615e-02, 3.636363636364e-03
2116, 1.085714285714e-02, -1.384615384615e-02, 3.636363636364e-03
2117, 1.200000000000e-02, -1.384615384615e-02, 3.636363636364e-03
2118, 1.314285714286e-02, -1.384615384615e-02, 3.636363636364e-03
2119, 1.428571428571e-02, -1.384615384615e-02, 3.636363636364e-03
2120, 1.542857142857e-02, -1.384615384615e-02, 3.636363636364e-03
2121, 1.657142857143e-02, -1.384615384615e-02, 3.636363636364e-03
2122, 1.771428571429e-02, -1.384615384615e-02, 3.636363636364e-03
2123, 1.885714285714e-02, -1.384615384615e-02, 3.636363636364e-03
2124, 2.000000000000e-02, -1.384615384615e-02, 3.636363636364e-03
2125, -2.000000000000e-02, -1.076923076923e-02, 3.636363636364e-03
2126, -1.885714285714e-02, -1.076923076923e-02, 3.636363636364e-03
2127, -1.771428571429e-02, -1.076923076923e-02, 3.636363636364e-03
2128, -1.657142857143e-02, -1.076923076923e-02, 3.636363636364e-03
2129, -1.542857142857e-02, -1.076923076923e-02, 3.636363636364e-03
2130, -1.428571428571e-02, -1.076923076923e-02, 3.636363636364e-03
2131, -1.314285714286e-02, -1.076923076923e-02, 3.636363636364e-03
2132, -1.200000000000e-02, -1.076923076923e-02, 3.636363636364e-03
2133, -1.085714285714e-02, -1.076923076923e-02, 3.636363636364e-03
2134, -9.714285714286e-03, -1.076923076923e-02, 3.636363636364e-03
2135, -8.571428571429e-03, -1.076923076923e-02, 3.636363636364e-03
2136, -7.428571428571e-03, -1.076923076923e-02, 3.636363636364e-03
2137, -6.285714285714e-03, -1.076923076923e-02, 3.636363636364e-03
2138, -5.142857142857e-03, -1.076923076923e-02, 3.636363636364e-03
2139, -4.000000000000e-03, -1.076923076923e-02, 3.636363636364e-03
2140, -2.857142857143e-03, -1.076923076923e-02, 3.636363636364e-03
2141, -1.714285714286e-03, -1.076923076923e-02, 3.636363636364e-03
2142, -5.714285714286e-04, -1.076923076923e-02, 3.636363636364e-03
2143, 5.714285714286e-04, -1.076923076923e-02, 3.636363636364e-03
2144, 1.714285714286e-03, -1.076923076923e-02, 3.636363636364e-03
2145, 2.857142857143e-03, -1.076923076923e-02, 3.636363636364e-03
2146, 4.000000000000e-03, -1.076923076923e-02, 3.636363636364e-03
2147, 5.142857142857e-03, -1.076923076923e-02, 3.636363636364e-03
2148, 6.285714285714e-03, -1.076923076923e-02, 3.636363636364e-03
2149, 7.428571428571e-03, -1.076923076923e-02, 3.636363636364e-03
2150, 8.571428571429e-03, -1.076923076923e-02, 3.636363636364e-03
2151, 9.714285714286e-03, -1.076923076923e-02, 3.636363636364e-03
2152, 1.085714285714e-02, -1.076923076923e-02, 3.636363636364e-03
2153, 1.200000000000e-02, -1.076923076923e-02, 3.636363636364e-03
2154, 1.314285714286e-02, -1.076923076923e-02, 3.636363636364e-03
2155, 1.428571428571e-02, -1.076923076923e-02, 3.636363636364e-03
2156, 1.542857142857e-02, -1.076923076923e-02, 3.636363636364e-03
2157, 1.657142857143e-02, -1.076923076923e-02, 3.636363636364e-03
2158, 1.771428571429e-02, -1.076923076923e-02, 3.636363636364e-03
2159, 1.885714285714e-02, -1.076923076923e-02, 3.636363636364e-03
2160, 2.000000000000e-02, -1.076923076923e-02, 3.636363636364e-03
2161, -2.000000000000e-02, -7.692307692308e-03, 3.636363636364e-03
2162, -1.885714285714e-02, -7.692307692308e-03, 3.636363636364e-03
2163, -1.771428571429e-02, -7.692307692308e-03, 3.636363636364e-03
2164, -1.657142857143e-02, -7.692307692308e-03, 3.636363636364e-03
2165, -1.542857142857e-02, -7.692307692308e-03, 3.636363636364e-03
2166, -1.428571428571e-02, -7.692307692308e-03, 3.636363636364e-03
2167, -1.314285714286e-02, -7.692307692308e-03, 3.636363636364e-03
2168, -1.200000000000e-02, -7.692307692308e-03, 3.636363636364e-03
2169, -1.085714285714e-02, -7.692307692308e-03, 3.636363636364e-03
2170, -9.714285714286e-03, -7.692307692308e-03, 3.636363636364e-03
2171, -8.571428571429e-03, -7.692307692308e-03, 3.636363636364e-03
2172, -7.428571428571e-03, -7.692307692308e-03, 3.636363636364e-03
2173, -6.285714285714e-03, -7.692307692308e-03, 3.636363636364e-03
2174, -5.142857142857e-03, -7.692307692308e-03, 3.636363636364e-03
2175, -4.000000000000e-03, -7.692307692308e-03, 3.636363636364e-03
2176, -2.857142857143e-03, -7.692307692308e-03, 3.636363636364e-03
2177, -1.714285714286e-03, -7.692307692308e-03, 3.636363636364e-03
2178, -5.714285714286e-04, -7.692307692308e-03, 3.636363636364e-03
2179, 5.714285714286e-04, -7.692307692308e-03, 3.636363636364e-03
2180, 1.714285714286e-03, -7.692307692308e-03, 3.636363636364e-03
2181, 2.857142857143e-03, -7.692307692308e-03, 3.636363636364e-03
2182, 4.000000000000e-03, -7.692307692308e-03, 3.636363636364e-03
2183, 5.142857142857e-03, -7.692307692308e-03, 3.636363636364e-03
2184, 6.285714285714e-03, -7.692307692308e-03, 3.636363636364e-03
2185, 7.428571428571e-03, -7.692307692308e-03, 3.636363636364e-03
2186, 8.571428571429e-03, -7.692307692308e-03, 3.636363636364e-03
2187, 9.714285714286e-03, -7.692307692308e-03, 3.636363636364e-03
2188, 1.085714285714e-02, -7.692307692308e-03, 3.636363636364e-03
2189, 1.200000000000e-02, -7.692307692308e-03, 3.636363636364e-03
2190, 1.314285714286e-02, -7.692307692308e-03, 3.636363636364e-03
2191, 1.428571428571e-02, -7.692307692308e-03, 3.636363636364e-03
2192, 1.542857142857e-02, -7.692307692308e-03, 3.636363636364e-03
2193, 1.657142857143e-02, -7.692307692308e-03, 3.636363636364e-03
2194, 1.771428571429e-02, -7.692307692308e-03, 3.636363636364e-03
2195, 1.885714285714e-02, -7.692307692308e-03, 3.636363636364e-03
2196, 2.000000000000e-02, -7.692307692308e-03, 3.636363636364e-03
2197, -2.000000000000e-02, -4.615384615385e-03, 3.636363636364e-03
2198, -1.885714285714e-02, -4.615384615385e-03, 3.636363636364e-03
2199, -1.771428571429e-02, -4.615384615385e-03, 3.636363636364e-03
2200, -1.657142857143e-02, -4.615384615385e-03, 3.636363636364e-03
2201, -1.542857142857e-02, -4.615384615385e-03, 3.636363636364e-03
2202, -1.428571428571e-02, -4.615384615385e-03, 3.636363636364e-03
2203, -1.314285714286e-02, -4.615384615385e-03, 3.636363636364e-03
2204, -1.200000000000e-02, -4.615384615385e-03, 3.636363636364e-03
2205, -1.085714285714e-02, -4.615384615385e-03, 3.636363636364e-03
2206, -9.714285714286e-03, -4.615384615385e-03, 3.636363636364e-03
2207, -8.571428571429e-03, -4.615384615385e-03, 3.636363636364e-03
2208, -7.428571428571e-03, -4.615384615385e-03, 3.636363636364e-03
2209, -6.285714285714e-03, -4.615384615385e-03, 3.636363636364e-03
2210, -5.142857142857e-03, -4.615384615385e-03, 3.636363636364e-03
2211, -4.000000000000e-03, -4.615384615385e-03, 3.636363636364e-03
2212, -2.857142857143e-03, -4.615384615385e-03, 3.636363636364e-03
2213, -1.714285714286e-03, -4.615384615385e-03, 3.636363636364e-03
2214, -5.714285714286e-04, -4.615384615385e-03, 3.636363636364e-03
2215, 5.714285714286e-04, -4.615384615385e-03, 3.636363636364e-03
2216, 1.714285714286e-03, -4.615384615385e-03, 3.636363636364e-03
2217, 2.857142857143e-03, -4.615384615385e-03, 3.636363636364e-03
2218, 4.000000000000e-03, -4.615384615385e-03, 3.636363636364e-03
2219, 5.142857142857e-03, -4.615384615385e-03, 3.636363636364e-03
2220, 6.285714285714e-03, -4.615384615385e-03, 3.636363636364e-03
2221, 7.428571428571e-03, -4.615384615385e-03, 3.636363636364e-03
2222, 8.571428571429e-03, -4.615384615385e-03, 3.636363636364e-03
2223, 9.714285714286e-03, -4.615384615385e-03, 3.636363636364e-03
2224, 1.085714285714e-02, -4.615384615385e-03, 3.636363636364e-03
2225, 1.200000000000e-02, -4.615384615385e-03, 3.636363636364e-03
2226, 1.314285714286e-02, -4.615384615385e-03, 3.636363636364e-03
2227, 1.428571428571e-02, -4.615384615385e-03, 3.636363636364e-03
2228, 1.542857142857e-02, -4.615384615385e-03, 3.636363636364e-03
2229, 1.657142857143e-02, -4.615384615385e-03, 3.636363636364e-03
2230, 1.771428571429e-02, -4.615384615385e-03, 3.636363636364e-03
2231, 1.885714285714e-02, -4.615384615385e-03, 3.636363636364e-03
2232, 2.000000000000e-02, -4.615384615385e-03, 3.636363636364e-03
2233, -2.000000000000e-02, -1.538461538462e-03, 3.636363636364e-03
2234, -1.885714285714e-02, -1.538461538462e-03, 3.636363636364e-03
2235, -1.771428571429e-02, -1.538461538462e-03, 3.636363636364e-03
2236, -1.657142857143e-02, -1.538461538462e-03, 3.636363636364e-03
2237, -1.542857142857e-02, -1.538461538462e-03, 3.636363636364e-03
2238, -1.428571428571e-02, -1.538461538462e-03, 3.636363636364e-03
2239, -1.314285714286e-02, -1.538461538462e-03, 3.636363636364e-03
2240, -1.200000000000e-02, -1.538461538462e-03, 3.636363636364e-03
2241, -1.085714285714e-02, -1.538461538462e-03, 3.636363636364e-03
2242, -9.714285714286e-03, -1.538461538462e-03, 3.636363636364e-03
2243, -8.571428571429e-03, -1.538461538462e-03, 3.636363636364e-03
2244, -7.428571428571e-03, -1.538461538462e-03, 3.636363636364e-03
2245, -6.285714285714e-03, -1.538461538462e-03, 3.636363636364e-03
2246, -5.142857142857e-03, -1.538461538462e-03, 3.636363636364e-03
2247, -4.000000000000e-03, -1.538461538462e-03, 3.636363636364e-03
2248, -2.857142857143e-03, -1.538461538462e-03, 3.636363636364e-03
2249, -1.714285714286e-03, -1.538461538462e-03, 3.636363636364e-03
2250, -5.714285714286e-04, -1.538461538462e-03, 3.636363636364e-03
2251, 5.714285714286e-04, -1.538461538462e-03, 3.636363636364e-03
2252, 1.714285714286e-03, -1.538461538462e-03, 3.636363636364e-03
2253, 2.857142857143e-03, -1.538461538462e-03, 3.636363636364e-03
2254, 4.000000000000e-03, -1.538461538462e-03, 3.636363636364e-03
2255, 5.142857142857e-03, -1.538461538462e-03, 3.636363636364e-03
2256, 6.285714285714e-03, -1.538461538462e-03, 3.636363636364e-03
2257, 7.428571428571e-03, -1.538461538462e-03, 3.636363636364e-03
2258, 8.571428571429e-03, -1.538461538462e-03, 3.636363636364e-03
2259, 9.714285714286e-03, -1.538461538462e-03, 3.636363636364e-03
2260, 1.085714285714e-02, -1.538461538462e-03, 3.636363636364e-03
2261, 1.200000000000e-02, -1.538461538462e-03, 3.636363636364e-03
2262, 1.314285714286e-02, -1.538461538462e-03, 3.636363636364e-03
2263, 1.428571428571e-02, -1.538461538462e-03, 3.636363636364e-03
2264, 1.542857142857e-02, -1.538461538462e-03, 3.636363636364e-03
2265, 1.657142857143e-02, -1.538461538462e-03, 3.636363636364e-03
2266, 1.771428571429e-02, -1.538461538462e-03, 3.636363636364e-03
2267, 1.885714285714e-02, -1.538461538462e-03, 3.636363636364e-03
2268, 2.000000000000e-02, -1.538461538462e-03, 3.636363636364e-03
2269, -2.000000000000e-02, 1.538461538462e-03, 3.636363636364e-03
2270, -1.885714285714e-02, 1.538461538462e-03, 3.636363636364e-03
2271, -1.771428571429e-02, 1.538461538462e-03, 3.636363636364e-03
2272, -1.657142857143e-02, 1.538461538462e-03, 3.636363636364e-03
2273, -1.542857142857e-02, 1.538461538462e-03, 3.636363636364e-03
2274, -1.428571428571e-02, 1.538461538462e-03, 3.636363636364e-03
2275, -1.314285714286e-02, 1.538461538462e-03, 3.636363636364e-03
2276, -1.200000000000e-02, 1.538461538462e-03, 3.636363636364e-03
2277, -1.085714285714e-02, 1.538461538462e-03, 3.636363636364e-03
2278, -9.714285714286e-03, 1.538461538462e-03, 3.636363636364e-03
2279, -8.571428571429e-03, 1.538461538462e-03, 3.636363636364e-03
2280, -7.428571428571e-03, 1.538461538462e-03, 3.636363636364e-03
2281, -6.285714285714e-03, 1.538461538462e-03, 3.636363636364e-03
2282, -5.142857142857e-03, 1.538461538462e-03, 3.636363636364e-03
2283, -4.000000000000e-03, 1.538461538462e-03, 3.636363636364e-03
2284, -2.857142857143e-03, 1.538461538462e-03, 3.636363636364e-03
2285, -1.714285714286e-03, 1.538461538462e-03, 3.636363636364e-03
2286, -5.714285714286e-04, 1.538461538462e-03, 3.636363636364e-03
2287, 5.714285714286e-04, 1.538461538462e-03, 3.636363636364e-03
2288, 1.714285714286e-03, 1.538461538462e-03, 3.636363636364e-03
2289, 2.857142857143e-03, 1.538461538462e-03, 3.636363636364e-03
2290, 4.000000000000e-03, 1.538461538462e-03, 3.636363636364e-03
2291, 5.142857142857e-03, 1.538461538462e-03, 3.636363636364e-03
2292, 6.285714285714e-03, 1.538461538462e-03, 3.636363636364e-03
2293, 7.428571428571e-03, 1.538461538462e-03, 3.636363636364e-03
2294, 8.571428571429e-03, 1.538461538462e-03, 3.636363636364e-03
2295, 9.714285714286e-03, 1.538461538462e-03, 3.636363636364e-03
2296, 1.085714285714e-02, 1.538461538462e-03, 3.636363636364e-03
2297, 1.200000000000e-02, 1.538461538462e-03, 3.636363636364e-03
2298, 1.314285714286e-02, 1.538461538462e-03, 3.636363636364e-03
2299, 1.428571428571e-02, 1.538461538462e-03, 3.636363636364e-03
2300, 1.542857142857e-02, 1.538461538462e-03, 3.636363636364e-03
2301, 1.657142857143e-02, 1.538461538462e-03, 3.636363636364e-03
2302, 1.771428571429e-02, 1.538461538462e-03, 3.636363636364e-03
2303, 1.885714285714e-02, 1.538461538462e-03, 3.636363636364e-03
2304, 2.000000000000e-02, 1.538461538462e-03, 3.636363636364e-03
2305, -2.000000000000e-02, 4.615384615385e-03, 3.636363636364e-03
2306, -1.885714285714e-02, 4.615384615385e-03, 3.636363636364e-03
2307, -1.771428571429e-02, 4.615384615385e-03, 3.636363636364e-03
2308, -1.657142857143e-02, 4.615384615385e-03, 3.636363636364e-03
2309, -1.542857142857e-02, 4.615384615385e-03, 3.636363636364e-03
2310, -1.428571428571e-02, 4.615384615385e-03, 3.636363636364e-03
2311, -1.314285714286e-02, 4.615384615385e-03, 3.636363636364e-03
2312, -1.200000000000e-02, 4.615384615385e-03, 3.636363636364e-03
2313, -1.085714285714e-02, 4.615384615385e-03, 3.636363636364e-03
2314, -9.714285714286e-03, 4.615384615385e-03, 3.636363636364e-03
2315, -8.571428571429e-03, 4.615384615385e-03, 3.636363636364e-03
2316, -7.428571428571e-03, 4.615384615385e-03, 3.636363636364e-03
2317, -6.285714285714e-03, 4.615384615385e-03, 3.636363636364e-03
2318, -5.142857142857e-03, 4.615384615385e-03, 3.636363636364e-03
2319, -4.000000000000e-03, 4.615384615385e-03, 3.636363636364e-03
2320, -2.857142857143e-03, 4.615384615385e-03, 3.636363636364e-03
2321, -1.714285714286e-03, 4.615384615385e-03, 3.636363636364e-03
2322, -5.714285714286e-04, 4.615384615385e-03, 3.636363636364e-03
2323, 5.714285714286e-04, 4.615384615385e-03, 3.636363636364e-03
2324, 1.714285714286e-03, 4.615384615385e-03, 3.636363636364e-03
2325, 2.857142857143e-03, 4.615384615385e-03, 3.636363636364e-03
2326, 4.000000000000e-03, 4.615384615385e-03, 3.636363636364e-03
2327, 5.142857142857e-03, 4.615384615385e-03, 3.636363636364e-03
2328, 6.285714285714e-03, 4.615384615385e-03, 3.636363636364e-03
2329, 7.428571428571e-03, 4.615384615385e-03, 3.636363636364e-03
2330, 8.571428571429e-03, 4.615384615385e-03, 3.636363636364e-03
2331, 9.714285714286e-03, 4.615384615385e-03, 3.636363636364e-03
2332, 1.085714285714e-02, 4.615384615385e-03, 3.636363636364e-03
2333, 1.200000000000e-02, 4.615384615385e-03, 3.636363636364e-03
2334, 1.314285714286e-02, 4.615384615385e-03, 3.636363636364e-03
2335, 1.428571428571e-02, 4.615384615385e-03, 3.636363636364e-03
2336, 1.542857142857e-02, 4.615384615385e-03, 3.636363636364e-03
2337, 1.657142857143e-02, 4.615384615385e-03, 3.636363636364e-03
2338, 1.771428571429e-02, 4.615384615385e-03, 3.636363636364e-03
2339, 1.885714285714e-02, 4.615384615385e-03, 3.636363636364e-03
2340, 2.000000000000e-02, 4.615384615385e-03, 3.636363636364e-03
2341, -2.000000000000e-02, 7.692307692308e-03, 3.636363636364e-03
2342, -1.885714285714e-02, 7.692307692308e-03, 3.636363636364e-03
2343, -1.771428571429e-02, 7.692307692308e-03, 3.636363636364e-03
2344, -1.657142857143e-02, 7.692307692308e-03, 3.636363636364e-03
2345, -1.542857142857e-02, 7.692307692308e-03, 3.636363636364e-03
2346, -1.428571428571e-02, 7.692307692308e-03, 3.636363636364e-03
2347, -1.314285714286e-02, 7.692307692308e-03, 3.636363636364e-03
2348, -1.200000000000e-02, 7.692307692308e-03, 3.636363636364e-03
2349, -1.085714285714e-02, 7.692307692308e-03, 3.636363636364e-03
2350, -9.714285714286e-03, 7.692307692308e-03, 3.636363636364e-03
2351, -8.571428571429e-03, 7.692307692308e-03, 3.636363636364e-03
2352, -7.428571428571e-03, 7.692307692308e-03, 3.636363636364e-03
2353, -6.285714285714e-03, 7.692307692308e-03, 3.636363636364e-03
2354, -5.142857142857e-03, 7.692307692308e-03, 3.636363636364e-03
2355, -4.000000000000e-03, 7.692307692308e-03, 3.636363636364e-03
2356, -2.857142857143e-03, 7.692307692308e-03, 3.636363636364e-03
2357, -1.714285714286e-03, 7.692307692308e-03, 3.636363636364e-03
2358, -5.714285714286e-04, 7.692307692308e-03, 3.636363636364e-03
2359, 5.714285714286e-04, 7.692307692308e-03, 3.636363636364e-03
2360, 1.714285714286e-03, 7.692307692308e-03, 3.636363636364e-03
2361, 2.857142857143e-03, 7.692307692308e-03, 3.636363636364e-03
2362, 4.000000000000e-03, 7.692307692308e-03, 3.636363636364e-03
2363, 5.142857142857e-03, 7.692307692308e-03, 3.636363636364e-03
2364, 6.285714285714e-03, 7.692307692308e-03, 3.636363636364e-03
2365, 7.428571428571e-03, 7.692307692308e-03, 3.636363636364e-03
2366, 8.571428571429e-03, 7.692307692308e-03, 3.636363636364e-03
2367, 9.714285714286e-03, 7.692307692308e-03, 3.636363636364e-03
2368, 1.085714285714e-02, 7.692307692308e-03, 3.636363636364e-03
2369, 1.200000000000e-02, 7.692307692308e-03, 3.636363636364e-03
2370, 1.314285714286e-02, 7.692307692308e-03, 3.636363636364e-03
2371, 1.428571428571e-02, 7.692307692308e-03, 3.636363636364e-03
2372, 1.542857142857e-02, 7.692307692308e-03, 3.636363636364e-03
2373, 1.657142857143e-02, 7.692307692308e-03, 3.636363636364e-03
2374, 1.771428571429e-02, 7.692307692308e-03, 3.636363636364e-03
2375, 1.885714285714e-02, 7.692307692308e-03, 3.636363636364e-03
2376, 2.000000000000e-02, 7.692307692308e-03, 3.636363636364e-03
2377, -2.000000000000e-02, 1.076923076923e-02, 3.636363636364e-03
2378, -1.885714285714e-02, 1.076923076923e-02, 3.636363636364e-03
2379, -1.771428571429e-02, 1.076923076923e-02, 3.636363636364e-03
2380, -1.657142857143e-02, 1.076923076923e-02, 3.636363636364e-03
2381, -1.542857142857e-02, 1.076923076923e-02, 3.636363636364e-03
2382, -1.428571428571e-02, 1.076923076923e-02, 3.636363636364e-03
2383, -1.314285714286e-02, 1.076923076923e-02, 3.636363636364e-03
2384, -1.200000000000e-02, 1.076923076923e-02, 3.636363636364e-03
2385, -1.085714285714e-02, 1.076923076923e-02, 3.636363636364e-03
2386, -9.714285714286e-03, 1.076923076923e-02, 3.636363636364e-03
2387, -8.571428571429e-03, 1.076923076923e-02, 3.636363636364e-03
2388, -7.428571428571e-03, 1.076923076923e-02, 3.636363636364e-03
2389, -6.285714285714e-03, 1.076923076923e-02, 3.636363636364e-03
2390, -5.142857142857e-03, 1.076923076923e-02, 3.636363636364e-03
2391, -4.000000000000e-03, 1.076923076923e-02, 3.636363636364e-03
2392, -2.857142857143e-03, 1.076923076923e-02, 3.636363636364e-03
2393, -1.714285714286e-03, 1.076923076923e-02, 3.636363636364e-03
2394, -5.714285714286e-04, 1.076923076923e-02, 3.636363636364e-03
2395, 5.714285714286e-04, 1.076923076923e-02, 3.636363636364e-03
2396, 1.714285714286e-03, 1.076923076923e-02, 3.636363636364e-03
2397, 2.857142857143e-03, 1.076923076923e-02, 3.636363636364e-03
2398, 4.000000000000e-03, 1.076923076923e-02, 3.636363636364e-03
2399, 5.142857142857e-03, 1.076923076923e-02, 3.636363636364e-03
2400, 6.285714285714e-03, 1.076923076923e-02, 3.636363636364e-03
2401, 7.428571428571e-03, 1.076923076923e-02, 3.636363636364e-03
2402, 8.571428571429e-03, 1.076923076923e-02, 3.636363636364e-03
2403, 9.714285714286e-03, 1.076923076923e-02, 3.636363636364e-03
2404, 1.085714285714e-02, 1.076923076923e-02, 3.636363636364e-03
2405, 1.200000000000e-02, 1.076923076923e-02, 3.636363636364e-03
2406, 1.314285714286e-02, 1.076923076923e-02, 3.636363636364e-03
2407, 1.428571428571e-02, 1.076923076923e-02, 3.636363636364e-03
2408, 1.542857142857e-02, 1.076923076923e-02, 3.636363636364e-03
2409, 1.657142857143e-02, 1.076923076923e-02, 3.636363636364e-03
2410, 1.771428571429e-02, 1.076923076923e-02, 3.636363636364e-03
2411, 1.885714285714e-02, 1.076923076923e-02, 3.636363636364e-03
2412, 2.000000000000e-02, 1.076923076923e-02, 3.636363636364e-03
2413, -2.000000000000e-02, 1.384615384615e-02, 3.636363636364e-03
2414, -1.885714285714e-02, 1.384615384615e-02, 3.636363636364e-03
2415, -1.771428571429e-02, 1.384615384615e-02, 3.636363636364e-03
2416, -1.657142857143e-02, 1.384615384615e-02, 3.636363636364e-03
2417, -1.542857142857e-02, 1.384615384615e-02, 3.636363636364e-03
2418, -1.428571428571e-02, 1.384615384615e-02, 3.636363636364e-03
2419, -1.314285714286e-02, 1.384615384615e-02, 3.636363636364e-03
2420, -1.200000000000e-02, 1.384615384615e-02, 3.636363636364e-03
2421, -1.085714285714e-02, 1.384615384615e-02, 3.636363636364e-03
2422, -9.714285714286e-03, 1.384615384615e-02, 3.636363636364e-03
2423, -8.571428571429e-03, 1.384615384615e-02, 3.636363636364e-03
2424, -7.428571428571e-03, 1.384615384615e-02, 3.636363636364e-03
2425, -6.285714285714e-03, 1.384615384615e-02, 3.636363636364e-03
2426, -5.142857142857e-03, 1.384615384615e-02, 3.636363636364e-03
2427, -4.000000000000e-03, 1.384615384615e-02, 3.636363636364e-03
2428, -2.857142857143e-03, 1.384615384615e-02, 3.636363636364e-03
2429, -1.714285714286e-03, 1.384615384615e-02, 3.636363636364e-03
2430, -5.714285714286e-04, 1.384615384615e-02, 3.636363636364e-03
2431, 5.714285714286e-04, 1.384615384615e-02, 3.636363636364e-03
2432, 1.714285714286e-03, 1.384615384615e-02, 3.636363636364e-03
2433, 2.857142857143e-03, 1.384615384615e-02, 3.636363636364e-03
2434, 4.000000000000e-03, 1.384615384615e-02, 3.636363636364e-03
2435, 5.142857142857e-03, 1.384615384615e-02, 3.636363636364e-03
2436, 6.285714285714e-03, 1.384615384615e-02, 3.636363636364e-03
2437, 7.428571428571e-03, 1.384615384615e-02, 3.636363636364e-03
2438, 8.571428571429e-03, 1.384615384615e-02, 3.636363636364e-03
2439, 9.714285714286e-03, 1.384615384615e-02, 3.636363636364e-03
2440, 1.085714285714e-02, 1.384615384615e-02, 3.636363636364e-03
2441, 1.200000000000e-02, 1.384615384615e-02, 3.636363636364e-03
2442, 1.314285714286e-02, 1.384615384615e-02, 3.636363636364e-03
2443, 1.428571428571e-02, 1.384615384615e-02, 3.636363636364e-03
2444, 1.542857142857e-02, 1.384615384615e-02, 3.636363636364e-03
2445, 1.657142857143e-02, 1.384615384615e-02, 3.636363636364e-03
2446, 1.771428571429e-02, 1.384615384615e-02, 3.636363636364e-03
2447, 1.885714285714e-02, 1.384615384615e-02, 3.636363636364e-03
2448, 2.000000000000e-02, 1.384615384615e-02, 3.636363636364e-03
2449, -2.000000000000e-02, 1.692307692308e-02, 3.636363636364e-03
2450, -1.885714285714e-02, 1.692307692308e-02, 3.636363636364e-03
2451, -1.771428571429e-02, 1.692307692308e-02, 3.636363636364e-03
2452, -1.657142857143e-02, 1.692307692308e-02, 3.636363636364e-03
2453, -1.542857142857e-02, 1.692307692308e-02, 3.636363636364e-03
2454, -1.428571428571e-02, 1.692307692308e-02, 3.636363636364e-03
2455, -1.314285714286e-02, 1.692307692308e-02, 3.636363636364e-03
2456, -1.200000000000e-02, 1.692307692308e-02, 3.636363636364e-03
2457, -1.085714285714e-02, 1.692307692308e-02, 3.636363636364e-03
2458, -9.714285714286e-03, 1.692307692308e-02, 3.636363636364e-03
2459, -8.571428571429e-03, 1.692307692308e-02, 3.636363636364e-03
2460, -7.428571428571e-03, 1.692307692308e-02, 3.636363636364e-03
2461, -6.285714285714e-03, 1.692307692308e-02, 3.636363636364e-03
2462, -5.142857142857e-03, 1.692307692308e-02, 3.636363636364e-03
2463, -4.000000000000e-03, 1.692307692308e-02, 3.636363636364e-03
2464, -2.857142857143e-03, 1.692307692308e-02, 3.636363636364e-03
2465, -1.714285714286e-03, 1.692307692308e-02, 3.636363636364e-03
2466, -5.714285714286e-04, 1.692307692308e-02, 3.636363636364e-03
2467, 5.714285714286e-04, 1.692307692308e-02, 3.636363636364e-03
2468, 1.714285714286e-03, 1.692307692308e-02, 3.636363636364e-03
2469, 2.857142857143e-03, 1.692307692308e-02, 3.636363636364e-03
2470, 4.000000000000e-03, 1.692307692308e-02, 3.636363636364e-03
2471, 5.142857142857e-03, 1.692307692308e-02, 3.636363636364e-03
2472, 6.285714285714e-03, 1.692307692308e-02, 3.636363636364e-03
2473, 7.428571428571e-03, 1.692307692308e-02, 3.636363636364e-03
2474, 8.571428571429e-03, 1.692307692308e-02, 3.636363636364e-03
2475, 9.714285714286e-03, 1.692307692308e-02, 3.636363636364e-03
2476, 1.085714285714e-02, 1.692307692308e-02, 3.636363636364e-03
2477, 1.200000000000e-02, 1.692307692308e-02, 3.636363636364e-03
2478, 1.314285714286e-02, 1.692307692308e-02, 3.636363636364e-03
2479, 1.428571428571e-02, 1.692307692308e-02, 3.636363636364e-03
2480, 1.542857142857e-02, 1.692307692308e-02, 3.636363636364e-03
2481, 1.657142857143e-02, 1.692307692308e-02, 3.636363636364e-03
2482, 1.771428571429e-02, 1.692307692308e-02, 3.636363636364e-03
2483, 1.885714285714e-02, 1.692307692308e-02, 3.636363636364e-03
2484, 2.000000000000e-02, 1.692307692308e-02, 3.636363636364e-03
2485, -2.000000000000e-02, 2.000000000000e-02, 3.636363636364e-03
2486, -1.885714285714e-02, 2.000000000000e-02, 3.636363636364e-03
2487, -1.771428571429e-02, 2.000000000000e-02, 3.636363636364e-03
2488, -1.657142857143e-02, 2.000000000000e-02, 3.636363636364e-03
2489, -1.542857142857e-02, 2.000000000000e-02, 3.636363636364e-03
2490, -1.428571428571e-02, 2.000000000000e-02, 3.636363636364e-03
2491, -1.314285714286e-02, 2.000000000000e-02, 3.636363636364e-03
2492, -1.200000000000e-02, 2.000000000000e-02, 3.636363636364e-03
2493, -1.085714285714e-02, 2.000000000000e-02, 3.636363636364e-03
2494, -9.714285714286e-03, 2.000000000000e-02, 3.636363636364e-03
2495, -8.571428571429e-03, 2.000000000000e-02, 3.636363636364e-03
2496, -7.428571428571e-03, 2.000000000000e-02, 3.636363636364e-03
2497, -6.285714285714e-03, 2.000000000000e-02, 3.636363636364e-03
2498, -5.142857142857e-03, 2.000000000000e-02, 3.636363636364e-03
2499, -4.000000000000e-03, 2.000000000000e-02, 3.636363636364e-03
2500, -2.857142857143e-03, 2.000000000000e-02, 3.636363636364e-03
2501, -1.714285714286e-03, 2.000000000000e-02, 3.636363636364e-03
2502, -5.714285714286e-04, 2.000000000000e-02, 3.636363636364e-03
2503, 5.714285714286e-04, 2.000000000000e-02, 3.636363636364e-03
2504, 1.714285714286e-03, 2.000000000000e-02, 3.636363636364e-03
2505, 2.857142857143e-03, 2.000000000000e-02, 3.636363636364e-03
2506, 4.000000000000e-03, 2.000000000000e-02, 3.636363636364e-03
2507, 5.142857142857e-03, 2.000000000000e-02, 3.636363636364e-03
2508, 6.285714285714e-03, 2.000000000000e-02, 3.636363636364e-03
2509, 7.428571428571e-03, 2.000000000000e-02, 3.636363636364e-03
2510, 8.571428571429e-03, 2.000000000000e-02, 3.636363636364e-03
2511, 9.714285714286e-03, 2.000000000000e-02, 3.636363636364e-03
2512, 1.085714285714e-02, 2.000000000000e-02, 3.636363636364e-03
2513, 1.200000000000e-02, 2.000000000000e-02, 3.636363636364e-03
2514, 1.314285714286e-02, 2.000000000000e-02, 3.636363636364e-03
2515, 1.428571428571e-02, 2.000000000000e-02, 3.636363636364e-03
2516, 1.542857142857e-02, 2.000000000000e-02, 3.636363636364e-03
2517, 1.657142857143e-02, 2.000000000000e-02, 3.636363636364e-03
2518, 1.771428571429e-02, 2.000000000000e-02, 3.636363636364e-03
2519, 1.885714285714e-02, 2.000000000000e-02, 3.636363636364e-03
2520, 2.000000000000e-02, 2.000000000000e-02, 3.636363636364e-03
2521, -2.000000000000e-02, -2.000000000000e-02, 4.545454545455e-03
2522, -1.885714285714e-02, -2.000000000000e-02, 4.545454545455e-03
2523, -1.771428571429e-02, -2.000000000000e-02, 4.545454545455e-03
2524, -1.657142857143e-02, -2.000000000000e-02, 4.545454545455e-03
2525, -1.542857142857e-02, -2.000000000000e-02, 4.545454545455e-03
2526, -1.428571428571e-02, -2.000000000000e-02, 4.545454545455e-03
2527, -1.314285714286e-02, -2.000000000000e-02, 4.545454545455e-03
2528, -1.200000000000e-02, -2.000000000000e-02, 4.545454545455e-03
2529, -1.085714285714e-02, -2.000000000000e-02, 4.545454545455e-03
2530, -9.714285714286e-03, -2.000000000000e-02, 4.545454545455e-03
2531, -8.571428571429e-03, -2.000000000000e-02, 4.545454545455e-03
2532, -7.428571428571e-03, -2.000000000000e-02, 4.545454545455e-03
2533, -6.285714285714e-03, -2.000000000000e-02, 4.545454545455e-03
2534, -5.142857142857e-03, -2.000000000000e-02, 4.545454545455e-03
2535, -4.000000000000e-03, -2.000000000000e-02, 4.545454545455e-03
2536, -2.857142857143e-03, -2.000000000000e-02, 4.545454545455e-03
2537, -1.714285714286e-03, -2.000000000000e-02, 4.545454545455e-03
2538, -5.714285714286e-04, -2.000000000000e-02, 4.545454545455e-03
2539, 5.714285714286e-04, -2.000000000000e-02, 4.545454545455e-03
2540, 1.714285714286e-03, -2.000000000000e-02, 4.545454545455e-03
2541, 2.857142857143e-03, -2.000000000000e-02, 4.545454545455e-03
2542, 4.000000000000e-03, -2.000000000000e-02, 4.545454545455e-03
2543, 5.142857142857e-03, -2.000000000000e-02, 4.545454545455e-03
2544, 6.285714285714e-03, -2.000000000000e-02, 4.545454545455e-03
2545, 7.428571428571e-03, -2.000000000000e-02, 4.545454545455e-03
2546, 8.571428571429e-03, -2.000000000000e-02, 4.545454545455e-03
2547, 9.714285714286e-03, -2.000000000000e-02, 4.545454545455e-03
2548, 1.085714285714e-02, -2.000000000000e-02, 4.545454545455e-03
2549, 1.200000000000e-02, -2.000000000000e-02, 4.545454545455e-03
2550, 1.314285714286e-02, -2.000000000000e-02, 4.545454545455e-03
2551, 1.428571428571e-02, -2.000000000000e-02, 4.545454545455e-03
2552, 1.542857142857e-02, -2.000000000000e-02, 4.545454545455e-03
2553, 1.657142857143e-02, -2.000000000000e-02, 4.545454545455e-03
2554, 1.771428571429e-02, -2.000000000000e-02, 4.545454545455e-03
2555, 1.885714285714e-02, -2.000000000000e-02, 4.545454545455e-03
2556, 2.000000000000e-02, -2.000000000000e-02, 4.545454545455e-03
2557, -2.000000000000e-02, -1.692307692308e-02, 4.545454545455e-03
2558, -1.885714285714e-02, -1.692307692308e-02, 4.545454545455e-03
2559, -1.771428571429e-02, -1.692307692308e-02, 4.545454545455e-03
2560, -1.657142857143e-02, -1.692307692308e-02, 4.545454545455e-03
2561, -1.542857142857e-02, -1.692307692308e-02, 4.545454545455e-03
2562, -1.428571428571e-02, -1.692307692308e-02, 4.545454545455e-03
2563, -1.314285714286e-02, -1.692307692308e-02, 4.545454545455e-03
2564, -1.200000000000e-02, -1.692307692308e-02, 4.545454545455e-03
2565, -1.085714285714e-02, -1.692307692308e-02, 4.545454545455e-03
2566, -9.714285714286e-03, -1.692307692308e-02, 4.545454545455e-03
2567, -8.571428571429e-03, -1.692307692308e-02, 4.545454545455e-03
2568, -7.428571428571e-03, -1.692307692308e-02, 4.545454545455e-03
2569, -6.285714285714e-03, -1.692307692308e-02, 4.545454545455e-03
2570, -5.142857142857e-03, -1.692307692308e-02, 4.545454545455e-03
2571, -4.000000000000e-03, -1.692307692308e-02, 4.545454545455e-03
2572, -2.857142857143e-03, -1.692307692308e-02, 4.545454545455e-03
2573, -1.714285714286e-03, -1.692307692308e-02, 4.545454545455e-03
2574, -5.714285714286e-04, -1.692307692308e-02, 4.545454545455e-03
2575, 5.714285714286e-04, -1.692307692308e-02, 4.545454545455e-03
2576, 1.714285714286e-03, -1.692307692308e-02, 4.545454545455e-03
2577, 2.857142857143e-03, -1.692307692308e-02, 4.545454545455e-03
2578, 4.000000000000e-03, -1.692307692308e-02, 4.545454545455e-03
2579, 5.142857142857e-03, -1.692307692308e-02, 4.545454545455e-03
2580, 6.285714285714e-03, -1.692307692308e-02, 4.545454545455e-03
2581, 7.428571428571e-03, -1.692307692308e-02, 4.545454545455e-03
2582, 8.571428571429e-03, -1.692307692308e-02, 4.545454545455e-03
2583, 9.714285714286e-03, -1.692307692308e-02, 4.545454545455e-03
2584, 1.085714285714e-02, -1.692307692308e-02, 4.545454545455e-03
2585, 1.200000000000e-02, -1.692307692308e-02, 4.545454545455e-03
2586, 1.314285714286e-02, -1.692307692308e-02, 4.545454545455e-03
2587, 1.428571428571e-02, -1.692307692308e-02, 4.545454545455e-03
2588, 1.542857142857e-02, -1.692307692308e-02, 4.545454545455e-03
2589, 1.657142857143e-02, -1.692307692308e-02, 4.545454545455e-03
2590, 1.771428571429e-02, -1.692307692308e-02, 4.545454545455e-03
2591, 1.885714285714e-02, -1.692307692308e-02, 4.545454545455e-03
2592, 2.000000000000e-02, -1.692307692308e-02, 4.545454545455e-03
2593, -2.000000000000e-02, -1.384615384615e-02, 4.545454545455e-03
2594, -1.885714285714e-02, -1.384615384615e-02, 4.545454545455e-03
2595, -1.771428571429e-02, -1.384615384615e-02, 4.545454545455e-03
2596, -1.657142857143e-02, -1.384615384615e-02, 4.545454545455e-03
2597, -1.542857142857e-02, -1.384615384615e-02, 4.545454545455e-03
2598, -1.428571428571e-02, -1.384615384615e-02, 4.545454545455e-03
2599, -1.314285714286e-02, -1.384615384615e-02, 4.545454545455e-03
2600, -1.200000000000e-02, -1.384615384615e-02, 4.545454545455e-03
2601, -1.085714285714e-02, -1.384615384615e-02, 4.545454545455e-03
2602, -9.714285714286e-03, -1.384615384615e-02, 4.545454545455e-03
2603, -8.571428571429e-03, -1.384615384615e-02, 4.545454545455e-03
2604, -7.428571428571e-03, -1.384615384615e-02, 4.545454545455e-03
2605, -6.285714285714e-03, -1.384615384615e-02, 4.545454545455e-03
2606, -5.142857142857e-03, -1.384615384615e-02, 4.545454545455e-03
2607, -4.000000000000e-03, -1.384615384615e-02, 4.545454545455e-03
2608, -2.857142857143e-03, -1.384615384615e-02, 4.545454545455e-03
2609, -1.714285714286e-03, -1.384615384615e-02, 4.545454545455e-03
2610, -5.714285714286e-04, -1.384615384615e-02, 4.545454545455e-03
2611, 5.714285714286e-04, -1.384615384615e-02, 4.545454545455e-03
2612, 1.714285714286e-03, -1.384615384615e-02, 4.545454545455e-03
2613, 2.857142857143e-03, -1.384615384615e-02, 4.545454545455e-03
2614, 4.000000000000e-03, -1.384615384615e-02, 4.545454545455e-03
2615, 5.142857142857e-03, -1.384615384615e-02, 4.545454545455e-03
2616, 6.285714285714e-03, -1.384615384615e-02, 4.545454545455e-03
2617, 7.428571428571e-03, -1.384615384615e-02, 4.545454545455e-03
2618, 8.571428571429e-03, -1.384615384615e-02, 4.545454545455e-03
2619, 9.714285714286e-03, -1.384615384615e-02, 4.545454545455e-03
2620, 1.085714285714e-02, -1.384615384615e-02, 4.545454545455e-03
2621, 1.200000000000e-02, -1.384615384615e-02, 4.545454545455e-03
2622, 1.314285714286e-02, -1.384615384615e-02, 4.545454545455e-03
2623, 1.428571428571e-02, -1.384615384615e-02, 4.545454545455e-03
2624, 1.542857142857e-02, -1.384615384615e-02, 4.545454545455e-03
2625, 1.657142857143e-02, -1.384615384615e-02, 4.545454545455e-03
2626, 1.771428571429e-02, -1.384615384615e-02, 4.545454545455e-03
2627, 1.885714285714e-02, -1.384615384615e-02, 4.545454545455e-03
2628, 2.000000000000e-02, -1.384615384615e-02, 4.545454545455e-03
2629, -2.000000000000e-02, -1.076923076923e-02, 4.545454545455e-03
2630, -1.885714285714e-02, -1.076923076923e-02, 4.545454545455e-03
2631, -1.771428571429e-02, -1.076923076923e-02, 4.545454545455e-03
2632, -1.657142857143e-02, -1.076923076923e-02, 4.545454545455e-03
2633, -1.542857142857e-02, -1.076923076923e-02, 4.545454545455e-03
2634, -1.428571428571e-02, -1.076923076923e-02, 4.545454545455e-03
2635, -1.314285714286e-02, -1.076923076923e-02, 4.545454545455e-03
2636, -1.200000000000e-02, -1.076923076923e-02, 4.545454545455e-03
2637, -1.085714285714e-02, -1.076923076923e-02, 4.545454545455e-03
2638, -9.714285714286e-03, -1.076923076923e-02, 4.545454545455e-03
2639, -8.571428571429e-03, -1.076923076923e-02, 4.545454545455e-03
2640, -7.428571428571e-03, -1.076923076923e-02, 4.545454545455e-03
2641, -6.285714285714e-03, -1.076923076923e-02, 4.545454545455e-03
2642, -5.142857142857e-03, -1.076923076923e-02, 4.545454545455e-03
2643, -4.000000000000e-03, -1.076923076923e-02, 4.545454545455e-03
2644, -2.857142857143e-03, -1.076923076923e-02, 4.545454545455e-03
2645, -1.714285714286e-03, -1.076923076923e-02, 4.545454545455e-03
2646, -5.714285714286e-04, -1.076923076923e-02, 4.545454545455e-03
2647, 5.714285714286e-04, -1.076923076923e-02, 4.545454545455e-03
2648, 1.714285714286e-03, -1.076923076923e-02, 4.545454545455e-03
2649, 2.857142857143e-03, -1.076923076923e-02, 4.545454545455e-03
2650, 4.000000000000e-03, -1.076923076923e-02, 4.545454545455e-03
2651, 5.142857142857e-03, -1.076923076923e-02, 4.545454545455e-03
2652, 6.285714285714e-03, -1.076923076923e-02, 4.545454545455e-03
2653, 7.428571428571e-03, -1.076923076923e-02, 4.545454545455e-03
2654, 8.571428571429e-03, -1.076923076923e-02, 4.545454545455e-03
2655, 9.714285714286e-03, -1.076923076923e-02, 4.545454545455e-03
2656, 1.085714285714e-02, -1.076923076923e-02, 4.545454545455e-03
2657, 1.200000000000e-02, -1.076923076923e-02, 4.545454545455e-03
2658, 1.314285714286e-02, -1.076923076923e-02, 4.545454545455e-03
2659, 1.428571428571e-02, -1.076923076923e-02, 4.545454545455e-03
2660, 1.542857142857e-02, -1.076923076923e-02, 4.545454545455e-03
2661, 1.657142857143e-02, -1.076923076923e-02, 4.545454545455e-03
2662, 1.771428571429e-02, -1.076923076923e-02, 4.545454545455e-03
2663, 1.885714285714e-02, -1.076923076923e-02, 4.545454545455e-03
2664, 2.000000000000e-02, -1.076923076923e-02, 4.545454545455e-03
2665, -2.000000000000e-02, -7.692307692308e-03, 4.545454545455e-03
2666, -1.885714285714e-02, -7.692307692308e-03, 4.545454545455e-03
2667, -1.771428571429e-02, -7.692307692308e-03, 4.545454545455e-03
2668, -1.657142857143e-02, -7.692307692308e-03, 4.545454545455e-03
2669, -1.542857142857e-02, -7.692307692308e-03, 4.545454545455e-03
2670, -1.428571428571e-02, -7.692307692308e-03, 4.545454545455e-03
2671, -1.314285714286e-02, -7.692307692308e-03, 4.545454545455e-03
2672, -1.200000000000e-02, -7.692307692308e-03, 4.545454545455e-03
2673, -1.085714285714e-02, -7.692307692308e-03, 4.545454545455e-03
2674, -9.714285714286e-03, -7.692307692308e-03, 4.545454545455e-03
2675, -8.571428571429e-03, -7.692307692308e-03, 4.545454545455e-03
2676, -7.428571428571e-03, -7.692307692308e-03, 4.545454545455e-03
2677, -6.285714285714e-03, -7.692307692308e-03, 4.545454545455e-03
2678, -5.142857142857e-03, -7.692307692308e-03, 4.545454545455e-03
2679, -4.000000000000e-03, -7.692307692308e-03, 4.545454545455e-03
2680, -2.857142857143e-03, -7.692307692308e-03, 4.545454545455e-03
2681, -1.714285714286e-03, -7.692307692308e-03, 4.545454545455e-03
2682, -5.714285714286e-04, -7.692307692308e-03, 4.545454545455e-03
2683, 5.714285714286e-04, -7.692307692308e-03, 4.545454545455e-03
2684, 1.714285714286e-03, -7.692307692308e-03, 4.545454545455e-03
2685, 2.857142857143e-03, -7.692307692308e-03, 4.545454545455e-03
2686, 4.000000000000e-03, -7.692307692308e-03, 4.545454545455e-03
2687, 5.142857142857e-03, -7.692307692308e-03, 4.545454545455e-03
2688, 6.285714285714e-03, -7.692307692308e-03, 4.545454545455e-03
2689, 7.428571428571e-03, -7.692307692308e-03, 4.545454545455e-03
2690, 8.571428571429e-03, -7.692307692308e-03, 4.545454545455e-03
2691, 9.714285714286e-03, -7.692307692308e-03, 4.545454545455e-03
2692, 1.085714285714e-02, -7.692307692308e-03, 4.545454545455e-03
2693, 1.200000000000e-02, -7.692307692308e-03, 4.545454545455e-03
2694, 1.314285714286e-02, -7.692307692308e-03, 4.545454545455e-03
2695, 1.428571428571e-02, -7.692307692308e-03, 4.545454545455e-03
2696, 1.542857142857e-02, -7.692307692308e-03, 4.545454545455e-03
2697, 1.657142857143e-02, -7.692307692308e-03, 4.545454545455e-03
2698, 1.771428571429e-02, -7.692307692308e-03, 4.545454545455e-03
2699, 1.885714285714e-02, -7.692307692308e-03, 4.545454545455e-03
2700, 2.000000000000e-02, -7.692307692308e-03, 4.545454545455e-03
2701, -2.000000000000e-02, -4.615384615385e-03, 4.545454545455e-03
2702, -1.885714285714e-02, -4.615384615385e-03, 4.545454545455e-03
2703, -1.771428571429e-02, -4.615384615385e-03, 4.545454545455e-03
2704, -1.657142857143e-02, -4.615384615385e-03, 4.545454545455e-03
2705, -1.542857142857e-02, -4.615384615385e-03, 4.545454545455e-03
2706, -1.428571428571e-02, -4.615384615385e-03, 4.545454545455e-03
2707, -1.314285714286e-02, -4.615384615385e-03, 4.545454545455e-03
2708, -1.200000000000e-02, -4.615384615385e-03, 4.545454545455e-03
2709, -1.085714285714e-02, -4.615384615385e-03, 4.545454545455e-03
2710, -9.714285714286e-03, -4.615384615385e-03, 4.545454545455e-03
2711, -8.571428571429e-03, -4.615384615385e-03, 4.545454545455e-03
2712, -7.428571428571e-03, -4.615384615385e-03, 4.545454545455e-03
2713, -6.285714285714e-03, -4.615384615385e-03, 4.545454545455e-03
2714, -5.142857142857e-03, -4.615384615385e-03, 4.545454545455e-03
2715, -4.000000000000e-03, -4.615384615385e-03, 4.545454545455e-03
2716, -2.857142857143e-03, -4.615384615385e-03, 4.545454545455e-03
2717, -1.714285714286e-03, -4.615384615385e-03, 4.545454545455e-03
2718, -5.714285714286e-04, -4.615384615385e-03, 4.545454545455e-03
2719, 5.714285714286e-04, -4.615384615385e-03, 4.545454545455e-03
2720, 1.714285714286e-03, -4.615384615385e-03, 4.545454545455e-03
2721, 2.857142857143e-03, -4.615384615385e-03, 4.545454545455e-03
2722, 4.000000000000e-03, -4.615384615385e-03, 4.545454545455e-03
2723, 5.142857142857e-03, -4.615384615385e-03, 4.545454545455e-03
2724, 6.285714285714e-03, -4.615384615385e-03, 4.545454545455e-03
2725, 7.428571428571e-03, -4.615384615385e-03, 4.545454545455e-03
2726, 8.571428571429e-03, -4.615384615385e-03, 4.545454545455e-03
2727, 9.714285714286e-03, -4.615384615385e-03, 4.545454545455e-03
2728, 1.085714285714e-02, -4.615384615385e-03, 4.545454545455e-03
2729, 1.200000000000e-02, -4.615384615385e-03, 4.545454545455e-03
2730, 1.314285714286e-02, -4.615384615385e-03, 4.545454545455e-03
2731, 1.428571428571e-02, -4.615384615385e-03, 4.545454545455e-03
2732, 1.542857142857e-02, -4.615384615385e-03, 4.545454545455e-03
2733, 1.657142857143e-02, -4.615384615385e-03, 4.545454545455e-03
2734, 1.771428571429e-02, -4.615384615385e-03, 4.545454545455e-03
2735, 1.885714285714e-02, -4.615384615385e-03, 4.545454545455e-03
2736, 2.000000000000e-02, -4.615384615385e-03, 4.545454545455e-03
2737, -2.000000000000e-02, -1.538461538462e-03, 4.545454545455e-03
2738, -1.885714285714e-02, -1.538461538462e-03, 4.545454545455e-03
2739, -1.771428571429e-02, -1.538461538462e-03, 4.545454545455e-03
2740, -1.657142857143e-02, -1.538461538462e-03, 4.545454545455e-03
2741, -1.542857142857e-02, -1.538461538462e-03, 4.545454545455e-03
2742, -1.428571428571e-02, -1.538461538462e-03, 4.545454545455e-03
2743, -1.314285714286e-02, -1.538461538462e-03, 4.545454545455e-03
2744, -1.200000000000e-02, -1.538461538462e-03, 4.545454545455e-03
2745, -1.085714285714e-02, -1.538461538462e-03, 4.545454545455e-03
2746, -9.714285714286e-03, -1.538461538462e-03, 4.545454545455e-03
2747, -8.571428571429e-03, -1.538461538462e-03, 4.545454545455e-03
2748, -7.428571428571e-03, -1.538461538462e-03, 4.545454545455e-03
2749, -6.285714285714e-03, -1.538461538462e-03, 4.545454545455e-03
2750, -5.142857142857e-03, -1.538461538462e-03, 4.545454545455e-03
2751, -4.000000000000e-03, -1.538461538462e-03, 4.545454545455e-03
2752, -2.857142857143e-03, -1.538461538462e-03, 4.545454545455e-03
2753, -1.714285714286e-03, -1.538461538462e-03, 4.545454545455e-03
2754, -5.714285714286e-04, -1.538461538462e-03, 4.545454545455e-03
2755, 5.714285714286e-04, -1.538461538462e-03, 4.545454545455e-03
2756, 1.714285714286e-03, -1.538461538462e-03, 4.545454545455e-03
2757, 2.857142857143e-03, -1.538461538462e-03, 4.545454545455e-03
2758, 4.000000000000e-03, -1.538461538462e-03, 4.545454545455e-03
2759, 5.142857142857e-03, -1.538461538462e-03, 4.545454545455e-03
2760, 6.285714285714e-03, -1.538461538462e-03, 4.545454545455e-03
2761, 7.428571428571e-03, -1.538461538462e-03, 4.545454545455e-03
2762, 8.571428571429e-03, -1.538461538462e-03, 4.545454545455e-03
2763, 9.714285714286e-03, -1.538461538462e-03, 4.545454545455e-03
2764, 1.085714285714e-02, -1.538461538462e-03, 4.545454545455e-03
2765, 1.200000000000e-02, -1.538461538462e-03, 4.545454545455e-03
2766, 1.314285714286e-02, -1.538461538462e-03, 4.545454545455e-03
2767, 1.428571428571e-02, -1.538461538462e-03, 4.545454545455e-03
2768, 1.542857142857e-02, -1.538461538462e-03, 4.545454545455e-03
2769, 1.657142857143e-02, -1.538461538462e-03, 4.545454545455e-03
2770, 1.771428571429e-02, -1.538461538462e-03, 4.545454545455e-03
2771, 1.885714285714e-02, -1.538461538462e-03, 4.545454545455e-03
2772, 2.000000000000e-02, -1.538461538462e-03, 4.545454545455e-03
2773, -2.000000000000e-02, 1.538461538462e-03, 4.545454545455e-03
2774, -1.885714285714e-02, 1.538461538462e-03, 4.545454545455e-03
2775, -1.771428571429e-02, 1.538461538462e-03, 4.545454545455e-03
2776, -1.657142857143e-02, 1.538461538462e-03, 4.545454545455e-03
2777, -1.542857142857e-02, 1.538461538462e-03, 4.545454545455e-03
2778, -1.428571428571e-02, 1.538461538462e-03, 4.545454545455e-03
2779, -1.314285714286e-02, 1.538461538462e-03, 4.545454545455e-03
2780, -1.200000000000e-02, 1.538461538462e-03, 4.545454545455e-03
2781, -1.085714285714e-02, 1.538461538462e-03, 4.545454545455e-03
2782, -9.714285714286e-03, 1.538461538462e-03, 4.545454545455e-03
2783, -8.571428571429e-03, 1.538461538462e-03, 4.545454545455e-03
2784, -7.428571428571e-03, 1.538461538462e-03, 4.545454545455e-03
2785, -6.285714285714e-03, 1.538461538462e-03, 4.545454545455e-03
2786, -5.142857142857e-03, 1.538461538462e-03, 4.545454545455e-03
2787, -4.000000000000e-03, 1.538461538462e-03, 4.545454545455e-03
2788, -2.857142857143e-03, 1.538461538462e-03, 4.545454545455e-03
2789, -1.714285714286e-03, 1.538461538462e-03, 4.545454545455e-03
2790, -5.714285714286e-04, 1.538461538462e-03, 4.545454545455e-03
2791, 5.714285714286e-04, 1.538461538462e-03, 4.545454545455e-03
2792, 1.714285714286e-03, 1.538461538462e-03, 4.545454545455e-03
2793, 2.857142857143e-03, 1.538461538462e-03, 4.545454545455e-03
2794, 4.000000000000e-03, 1.538461538462e-03, 4.545454545455e-03
2795, 5.142857142857e-03, 1.538461538462e-03, 4.545454545455e-03
2796, 6.285714285714e-03, 1.538461538462e-03, 4.545454545455e-03
2797, 7.428571428571e-03, 1.538461538462e-03, 4.545454545455e-03
2798, 8.571428571429e-03, 1.538461538462e-03, 4.545454545455e-03
2799, 9.714285714286e-03, 1.538461538462e-03, 4.545454545455e-03
2800, 1.085714285714e-02, 1.538461538462e-03, 4.545454545455e-03
2801, 1.200000000000e-02, 1.538461538462e-03, 4.545454545455e-03
2802, 1.314285714286e-02, 1.538461538462e-03, 4.545454545455e-03
2803, 1.428571428571e-02, 1.538461538462e-03, 4.545454545455e-03
2804, 1.542857142857e-02, 1.538461538462e-03, 4.545454545455e-03
2805, 1.657142857143e-02, 1.538461538462e-03, 4.545454545455e-03
2806, 1.771428571429e-02, 1.538461538462e-03, 4.545454545455e-03
2807, 1.885714285714e-02, 1.538461538462e-03, 4.545454545455e-03
2808, 2.000000000000e-02, 1.538461538462e-03, 4.545454545455e-03
2809, -2.000000000000e-02, 4.615384615385e-03, 4.545454545455e-03
2810, -1.885714285714e-02, 4.615384615385e-03, 4.545454545455e-03
2811, -1.771428571429e-02, 4.615384615385e-03, 4.545454545455e-03
2812, -1.657142857143e-02, 4.615384615385e-03, 4.545454545455e-03
2813, -1.542857142857e-02, 4.615384615385e-03, 4.545454545455e-03
2814, -1.428571428571e-02, 4.615384615385e-03, 4.545454545455e-03
2815, -1.314285714286e-02, 4.615384615385e-03, 4.545454545455e-03
2816, -1.200000000000e-02, 4.615384615385e-03, 4.545454545455e-03
2817, -1.085714285714e-02, 4.615384615385e-03, 4.545454545455e-03
2818, -9.714285714286e-03, 4.615384615385e-03, 4.545454545455e-03
2819, -8.571428571429e-03, 4.615384615385e-03, 4.545454545455e-03
2820, -7.428571428571e-03, 4.615384615385e-03, 4.545454545455e-03
2821, -6.285714285714e-03, 4.615384615385e-03, 4.545454545455e-03
2822, -5.142857142857e-03, 4.615384615385e-03, 4.545454545455e-03
2823, -4.000000000000e-03, 4.615384615385e-03, 4.545454545455e-03
2824, -2.857142857143e-03, 4.615384615385e-03, 4.545454545455e-03
2825, -1.714285714286e-03, 4.615384615385e-03, 4.545454545455e-03
2826, -5.714285714286e-04, 4.615384615385e-03, 4.545454545455e-03
2827, 5.714285714286e-04, 4.615384615385e-03, 4.545454545455e-03
2828, 1.714285714286e-03, 4.615384615385e-03, 4.545454545455e-03
2829, 2.857142857143e-03, 4.615384615385e-03, 4.545454545455e-03
2830, 4.000000000000e-03, 4.615384615385e-03, 4.545454545455e-03
2831, 5.142857142857e-03, 4.615384615385e-03, 4.545454545455e-03
2832, 6.285714285714e-03, 4.615384615385e-03, 4.545454545455e-03
2833, 7.428571428571e-03, 4.615384615385e-03, 4.545454545455e-03
2834, 8.571428571429e-03, 4.615384615385e-03, 4.545454545455e-03
2835, 9.714285714286e-03, 4.615384615385e-03, 4.545454545455e-03
2836, 1.085714285714e-02, 4.615384615385e-03, 4.545454545455e-03
2837, 1.200000000000e-02, 4.615384615385e-03, 4.545454545455e-03
2838, 1.314285714286e-02, 4.615384615385e-03, 4.545454545455e-03
2839, 1.428571428571e-02, 4.615384615385e-03, 4.545454545455e-03
2840, 1.542857142857e-02, 4.615384615385e-03, 4.545454545455e-03
2841, 1.657142857143e-02, 4.615384615385e-03, 4.545454545455e-03
2842, 1.771428571429e-02, 4.615384615385e-03, 4.545454545455e-03
2843, 1.885714285714e-02, 4.615384615385e-03, 4.545454545455e-03
2844, 2.000000000000e-02, 4.615384615385e-03, 4.545454545455e-03
2845, -2.000000000000e-02, 7.692307692308e-03, 4.545454545455e-03
2846, -1.885714285714e-02, 7.692307692308e-03, 4.545454545455e-03
2847, -1.771428571429e-02, 7.692307692308e-03, 4.545454545455e-03
2848, -1.657142857143e-02, 7.692307692308e-03, 4.545454545455e-03
2849, -1.542857142857e-02, 7.692307692308e-03, 4.545454545455e-03
2850, -1.428571428571e-02, 7.692307692308e-03, 4.545454545455e-03
2851, -1.314285714286e-02, 7.692307692308e-03, 4.545454545455e-03
2852, -1.200000000000e-02, 7.692307692308e-03, 4.545454545455e-03
2853, -1.085714285714e-02, 7.692307692308e-03, 4.545454545455e-03
2854, -9.714285714286e-03, 7.692307692308e-03, 4.545454545455e-03
2855, -8.571428571429e-03, 7.692307692308e-03, 4.545454545455e-03
2856, -7.428571428571e-03, 7.692307692308e-03, 4.545454545455e-03
2857, -6.285714285714e-03, 7.692307692308e-03, 4.545454545455e-03
2858, -5.142857142857e-03, 7.692307692308e-03, 4.545454545455e-03
2859, -4.000000000000e-03, 7.692307692308e-03, 4.545454545455e-03
2860, -2.857142857143e-03, 7.692307692308e-03, 4.545454545455e-03
2861, -1.714285714286e-03, 7.692307692308e-03, 4.545454545455e-03
2862, -5.714285714286e-04, 7.692307692308e-03, 4.545454545455e-03
2863, 5.714285714286e-04, 7.692307692308e-03, 4.545454545455e-03
2864, 1.714285714286e-03, 7.692307692308e-03, 4.545454545455e-03
2865, 2.857142857143e-03, 7.692307692308e-03, 4.545454545455e-03
2866, 4.000000000000e-03, 7.692307692308e-03, 4.545454545455e-03
2867, 5.142857142857e-03, 7.692307692308e-03, 4.545454545455e-03
2868, 6.285714285714e-03, 7.692307692308e-03, 4.545454545455e-03
2869, 7.428571428571e-03, 7.692307692308e-03, 4.545454545455e-03
2870, 8.571428571429e-03, 7.692307692308e-03, 4.545454545455e-03
2871, 9.714285714286e-03, 7.692307692308e-03, 4.545454545455e-03
2872, 1.085714285714e-02, 7.692307692308e-03, 4.545454545455e-03
2873, 1.200000000000e-02, 7.692307692308e-03, 4.545454545455e-03
2874, 1.314285714286e-02, 7.692307692308e-03, 4.545454545455e-03
2875, 1.428571428571e-02, 7.692307692308e-03, 4.545454545455e-03
2876, 1.542857142857e-02, 7.692307692308e-03, 4.545454545455e-03
2877, 1.657142857143e-02, 7.692307692308e-03, 4.545454545455e-03
2878, 1.771428571429e-02, 7.692307692308e-03, 4.545454545455e-03
2879, 1.885714285714e-02, 7.692307692308e-03, 4.545454545455e-03
2880, 2.000000000000e-02, 7.692307692308e-03, 4.545454545455e-03
2881, -2.000000000000e-02, 1.076923076923e-02, 4.545454545455e-03
2882, -1.885714285714e-02, 1.076923076923e-02, 4.545454545455e-03
2883, -1.771428571429e-02, 1.076923076923e-02, 4.545454545455e-03
2884, -1.657142857143e-02, 1.076923076923e-02, 4.545454545455e-03
2885, -1.542857142857e-02, 1.076923076923e-02, 4.545454545455e-03
2886, -1.428571428571e-02, 1.076923076923e-02, 4.545454545455e-03
2887, -1.314285714286e-02, 1.076923076923e-02, 4.545454545455e-03
2888, -1.200000000000e-02, 1.076923076923e-02, 4.545454545455e-03
2889, -1.085714285714e-02, 1.076923076923e-02, 4.545454545455e-03
2890, -9.714285714286e-03, 1.076923076923e-02, 4.545454545455e-03
2891, -8.571428571429e-03, 1.076923076923e-02, 4.545454545455e-03
2892, -7.428571428571e-03, 1.076923076923e-02, 4.545454545455e-03
2893, -6.285714285714e-03, 1.076923076923e-02, 4.545454545455e-03
2894, -5.142857142857e-03, 1.076923076923e-02, 4.545454545455e-03
2895, -4.000000000000e-03, 1.076923076923e-02, 4.545454545455e-03
2896, -2.857142857143e-03, 1.076923076923e-02, 4.545454545455e-03
2897, -1.714285714286e-03, 1.076923076923e-02, 4.545454545455e-03
2898, -5.714285714286e-04, 1.076923076923e-02, 4.545454545455e-03
2899, 5.714285714286e-04, 1.076923076923e-02, 4.545454545455e-03
2900, 1.714285714286e-03, 1.076923076923e-02, 4.545454545455e-03
2901, 2.857142857143e-03, 1.076923076923e-02, 4.545454545455e-03
2902, 4.000000000000e-03, 1.076923076923e-02, 4.545454545455e-03
2903, 5.142857142857e-03, 1.076923076923e-02, 4.545454545455e-03
2904, 6.285714285714e-03, 1.076923076923e-02, 4.545454545455e-03
2905, 7.428571428571e-03, 1.076923076923e-02, 4.545454545455e-03
2906, 8.571428571429e-03, 1.076923076923e-02, 4.545454545455e-03
2907, 9.714285714286e-03, 1.076923076923e-02, 4.545454545455e-03
2908, 1.085714285714e-02, 1.076923076923e-02, 4.545454545455e-03
2909, 1.200000000000e-02, 1.076923076923e-02, 4.545454545455e-03
2910, 1.314285714286e-02, 1.076923076923e-02, 4.545454545455e-03
2911, 1.428571428571e-02, 1.076923076923e-02, 4.545454545455e-03
2912, 1.542857142857e-02, 1.076923076923e-02, 4.545454545455e-03
2913, 1.657142857143e-02, 1.076923076923e-02, 4.545454545455e-03
2914, 1.771428571429e-02, 1.076923076923e-02, 4.545454545455e-03
2915, 1.885714285714e-02, 1.076923076923e-02, 4.545454545455e-03
2916, 2.000000000000e-02, 1.076923076923e-02, 4.545454545455e-03
2917, -2.000000000000e-02, 1.384615384615e-02, 4.545454545455e-03
2918, -1.885714285714e-02, 1.384615384615e-02, 4.545454545455e-03
2919, -1.771428571429e-02, 1.384615384615e-02, 4.545454545455e-03
2920, -1.657142857143e-02, 1.384615384615e-02, 4.545454545455e-03
2921, -1.542857142857e-02, 1.384615384615e-02, 4.545454545455e-03
2922, -1.428571428571e-02, 1.384615384615e-02, 4.545454545455e-03
2923, -1.314285714286e-02, 1.384615384615e-02, 4.545454545455e-03
2924, -1.200000000000e-02, 1.384615384615e-02, 4.545454545455e-03
2925, -1.085714285714e-02, 1.384615384615e-02, 4.545454545455e-03
2926, -9.714285714286e-03, 1.384615384615e-02, 4.545454545455e-03
2927, -8.571428571429e-03, 1.384615384615e-02, 4.545454545455e-03
2928, -7.428571428571e-03, 1.384615384615e-02, 4.545454545455e-03
2929, -6.285714285714e-03, 1.384615384615e-02, 4.545454545455e-03
2930, -5.142857142857e-03, 1.384615384615e-02, 4.545454545455e-03
2931, -4.000000000000e-03, 1.384615384615e-02, 4.545454545455e-03
2932, -2.857142857143e-03, 1.384615384615e-02, 4.545454545455e-03
2933, -1.714285714286e-03, 1.384615384615e-02, 4.545454545455e-03
2934, -5.714285714286e-04, 1.384615384615e-02, 4.545454545455e-03
2935, 5.714285714286e-04, 1.384615384615e-02, 4.545454545455e-03
2936, 1.714285714286e-03, 1.384615384615e-02, 4.545454545455e-03
2937, 2.857142857143e-03, 1.384615384615e-02, 4.545454545455e-03
2938, 4.000000000000e-03, 1.384615384615e-02, 4.545454545455e-03
2939, 5.142857142857e-03, 1.384615384615e-02, 4.545454545455e-03
2940, 6.285714285714e-03, 1.384615384615e-02, 4.545454545455e-03
2941, 7.428571428571e-03, 1.384615384615e-02, 4.545454545455e-03
2942, 8.571428571429e-03, 1.384615384615e-02, 4.545454545455e-03
2943, 9.714285714286e-03, 1.384615384615e-02, 4.545454545455e-03
2944, 1.085714285714e-02, 1.384615384615e-02, 4.545454545455e-03
2945, 1.200000000000e-02, 1.384615384615e-02, 4.545454545455e-03
2946, 1.314285714286e-02, 1.384615384615e-02, 4.545454545455e-03
2947, 1.428571428571e-02, 1.384615384615e-02, 4.545454545455e-03
2948, 1.542857142857e-02, 1.384615384615e-02, 4.545454545455e-03
2949, 1.657142857143e-02, 1.384615384615e-02, 4.545454545455e-03
2950, 1.771428571429e-02, 1.384615384615e-02, 4.545454545455e-03
2951, 1.885714285714e-02, 1.384615384615e-02, 4.545454545455e-03
2952, 2.000000000000e-02, 1.384615384615e-02, 4.545454545455e-03
2953, -2.000000000000e-02, 1.692307692308e-02, 4.545454545455e-03
2954, -1.885714285714e-02, 1.692307692308e-02, 4.545454545455e-03
2955, -1.771428571429e-02, 1.692307692308e-02, 4.545454545455e-03
2956, -1.657142857143e-02, 1.692307692308e-02, 4.545454545455e-03
2957, -1.542857142857e-02, 1.692307692308e-02, 4.545454545455e-03
2958, -1.428571428571e-02, 1.692307692308e-02, 4.545454545455e-03
2959, -1.314285714286e-02, 1.692307692308e-02, 4.545454545455e-03
2960, -1.200000000000e-02, 1.692307692308e-02, 4.545454545455e-03
2961, -1.085714285714e-02, 1.692307692308e-02, 4.545454545455e-03
2962, -9.714285714286e-03, 1.692307692308e-02, 4.545454545455e-03
2963, -8.571428571429e-03, 1.692307692308e-02, 4.545454545455e-03
2964, -7.428571428571e-03, 1.692307692308e-02, 4.545454545455e-03
2965, -6.285714285714e-03, 1.692307692308e-02, 4.545454545455e-03
2966, -5.142857142857e-03, 1.692307692308e-02, 4.545454545455e-03
2967, -4.000000000000e-03, 1.692307692308e-02, 4.545454545455e-03
2968, -2.857142857143e-03, 1.692307692308e-02, 4.545454545455e-03
2969, -1.714285714286e-03, 1.692307692308e-02, 4.545454545455e-03
2970, -5.714285714286e-04, 1.692307692308e-02, 4.545454545455e-03
2971, 5.714285714286e-04, 1.692307692308e-02, 4.545454545455e-03
2972, 1.714285714286e-03, 1.692307692308e-02, 4.545454545455e-03
2973, 2.857142857143e-03, 1.692307692308e-02, 4.545454545455e-03
2974, 4.000000000000e-03, 1.692307692308e-02, 4.545454545455e-03
2975, 5.142857142857e-03, 1.692307692308e-02, 4.545454545455e-03
2976, 6.285714285714e-03, 1.692307692308e-02, 4.545454545455e-03
2977, 7.428571428571e-03, 1.692307692308e-02, 4.545454545455e-03
2978, 8.571428571429e-03, 1.692307692308e-02, 4.545454545455e-03
2979, 9.714285714286e-03, 1.692307692308e-02, 4.545454545455e-03
2980, 1.085714285714e-02, 1.692307692308e-02, 4.545454545455e-03
2981, 1.200000000000e-02, 1.692307692308e-02, 4.545454545455e-03
2982, 1.314285714286e-02, 1.692307692308e-02, 4.545454545455e-03
2983, 1.428571428571e-02, 1.692307692308e-02, 4.545454545455e-03
2984, 1.542857142857e-02, 1.692307692308e-02, 4.545454545455e-03
2985, 1.657142857143e-02, 1.692307692308e-02, 4.545454545455e-03
2986, 1.771428571429e-02, 1.692307692308e-02, 4.545454545455e-03
2987, 1.885714285714e-02, 1.692307692308e-02, 4.545454545455e-03
2988, 2.000000000000e-02, 1.692307692308e-02, 4.545454545455e-03
2989, -2.000000000000e-02, 2.000000000000e-02, 4.545454545455e-03
2990, -1.885714285714e-02, 2.000000000000e-02, 4.545454545455e-03
2991, -1.771428571429e-02, 2.000000000000e-02, 4.545454545455e-03
2992, -1.657142857143e-02, 2.000000000000e-02, 4.545454545455e-03
2993, -1.542857142857e-02, 2.000000000000e-02, 4.545454545455e-03
2994, -1.428571428571e-02, 2.000000000000e-02, 4.545454545455e-03
2995, -1.314285714286e-02, 2.000000000000e-02, 4.545454545455e-03
2996, -1.200000000000e-02, 2.000000000000e-02, 4.545454545455e-03
2997, -1.085714285714e-02, 2.000000000000e-02, 4.545454545455e-03
2998, -9.714285714286e-03, 2.000000000000e-02, 4.545454545455e-03
2999, -8.571428571429e-03, 2.000000000000e-02, 4.545454545455e-03
3000, -7.428571428571e-03, 2.000000000000e-02, 4.545454545455e-03
3001, -6.285714285714e-03, 2.000000000000e-02, 4.545454545455e-03
3002, -5.142857142857e-03, 2.000000000000e-02, 4.545454545455e-03
3003, -4.000000000000e-03, 2.000000000000e-02, 4.545454545455e-03
3004, -2.857142857143e-03, 2.000000000000e-02, 4.545454545455e-03
3005, -1.714285714286e-03, 2.000000000000e-02, 4.545454545455e-03
3006, -5.714285714286e-04, 2.000000000000e-02, 4.545454545455e-03
3007, 5.714285714286e-04, 2.000000000000e-02, 4.545454545455e-03
3008, 1.714285714286e-03, 2.000000000000e-02, 4.545454545455e-03
3009, 2.857142857143e-03, 2.000000000000e-02, 4.545454545455e-03
3010, 4.000000000000e-03, 2.000000000000e-02, 4.545454545455e-03
3011, 5.142857142857e-03, 2.000000000000e-02, 4.545454545455e-03
3012, 6.285714285714e-03, 2.000000000000e-02, 4.545454545455e-03
3013, 7.428571428571e-03, 2.000000000000e-02, 4.545454545455e-03
3014, 8.571428571429e-03, 2.000000000000e-02, 4.545454545455e-03
3015, 9.714285714286e-03, 2.000000000000e-02, 4.545454545455e-03
3016, 1.085714285714e-02, 2.000000000000e-02, 4.545454545455e-03
3017, 1.200000000000e-02, 2.000000000000e-02, 4.545454545455e-03
3018, 1.314285714286e-02, 2.000000000000e-02, 4.545454545455e-03
3019, 1.428571428571e-02, 2.000000000000e-02, 4.545454545455e-03
3020, 1.542857142857e-02, 2.000000000000e-02, 4.545454545455e-03
3021, 1.657142857143e-02, 2.000000000000e-02, 4.545454545455e-03
3022, 1.771428571429e-02, 2.000000000000e-02, 4.545454545455e-03
3023, 1.885714285714e-02, 2.000000000000e-02, 4.545454545455e-03
3024, 2.000000000000e-02, 2.000000000000e-02, 4.545454545455e-03
3025, -2.000000000000e-02, -2.000000000000e-02, 5.454545454545e-03
3026, -1.885714285714e-02, -2.000000000000e-02, 5.454545454545e-03
3027, -1.771428571429e-02, -2.000000000000e-02, 5.454545454545e-03
3028, -1.657142857143e-02, -2.000000000000e-02, 5.454545454545e-03
3029, -1.542857142857e-02, -2.000000000000e-02, 5.454545454545e-03
3030, -1.428571428571e-02, -2.000000000000e-02, 5.454545454545e-03
3031, -1.314285714286e-02, -2.000000000000e-02, 5.454545454545e-03
3032, -1.200000000000e-02, -2.000000000000e-02, 5.454545454545e-03
3033, -1.085714285714e-02, -2.000000000000e-02, 5.454545454545e-03
3034, -9.714285714286e-03, -2.000000000000e-02, 5.454545454545e-03
3035, -8.571428571429e-03, -2.000000000000e-02, 5.454545454545e-03
3036, -7.428571428571e-03, -2.000000000000e-02, 5.454545454545e-03
3037, -6.285714285714e-03, -2.000000000000e-02, 5.454545454545e-03
3038, -5.142857142857e-03, -2.000000000000e-02, 5.454545454545e-03
3039, -4.000000000000e-03, -2.000000000000e-02, 5.454545454545e-03
3040, -2.857142857143e-03, -2.000000000000e-02, 5.454545454545e-03
3041, -1.714285714286e-03, -2.000000000000e-02, 5.454545454545e-03
3042, -5.714285714286e-04, -2.000000000000e-02, 5.454545454545e-03
3043, 5.714285714286e-04, -2.000000000000e-02, 5.454545454545e-03
3044, 1.714285714286e-03, -2.000000000000e-02, 5.454545454545e-03
3045, 2.857142857143e-03, -2.000000000000e-02, 5.454545454545e-03
3046, 4.000000000000e-03, -2.000000000000e-02, 5.454545454545e-03
3047, 5.142857142857e-03, -2.000000000000e-02, 5.454545454545e-03
3048, 6.285714285714e-03, -2.000000000000e-02, 5.454545454545e-03
3049, 7.428571428571e-03, -2.000000000000e-02, 5.454545454545e-03
3050, 8.571428571429e-03, -2.000000000000e-02, 5.454545454545e-03
3051, 9.714285714286e-03, -2.000000000000e-02, 5.454545454545e-03
3052, 1.085714285714e-02, -2.000000000000e-02, 5.454545454545e-03
3053, 1.200000000000e-02, -2.000000000000e-02, 5.454545454545e-03
3054, 1.314285714286e-02, -2.000000000000e-02, 5.454545454545e-03
3055, 1.428571428571e-02, -2.000000000000e-02, 5.454545454545e-03
3056, 1.542857142857e-02, -2.000000000000e-02, 5.454545454545e-03
3057, 1.657142857143e-02, -2.000000000000e-02, 5.454545454545e-03
3058, 1.771428571429e-02, -2.000000000000e-02, 5.454545454545e-03
3059, 1.885714285714e-02, -2.000000000000e-02, 5.454545454545e-03
3060, 2.000000000000e-02, -2.000000000000e-02, 5.454545454545e-03
3061, -2.000000000000e-02, -1.692307692308e-02, 5.454545454545e-03
3062, -1.885714285714e-02, -1.692307692308e-02, 5.454545454545e-03
3063, -1.771428571429e-02, -1.692307692308e-02, 5.454545454545e-03
3064, -1.657142857143e-02, -1.692307692308e-02, 5.454545454545e-03
3065, -1.542857142857e-02, -1.692307692308e-02, 5.454545454545e-03
3066, -1.428571428571e-02, -1.692307692308e-02, 5.454545454545e-03
3067, -1.314285714286e-02, -1.692307692308e-02, 5.454545454545e-03
3068, -1.200000000000e-02, -1.692307692308e-02, 5.454545454545e-03
3069, -1.085714285714e-02, -1.692307692308e-02, 5.454545454545e-03
3070, -9.714285714286e-03, -1.692307692308e-02, 5.454545454545e-03
3071, -8.571428571429e-03, -1.692307692308e-02, 5.454545454545e-03
3072, -7.428571428571e-03, -1.692307692308e-02, 5.454545454545e-03
3073, -6.285714285714e-03, -1.692307692308e-02, 5.454545454545e-03
3074, -5.142857142857e-03, -1.692307692308e-02, 5.454545454545e-03
3075, -4.000000000000e-03, -1.692307692308e-02, 5.454545454545e-03
3076, -2.857142857143e-03, -1.692307692308e-02, 5.454545454545e-03
3077, -1.714285714286e-03, -1.692307692308e-02, 5.454545454545e-03
3078, -5.714285714286e-04, -1.692307692308e-02, 5.454545454545e-03
3079, 5.714285714286e-04, -1.692307692308e-02, 5.454545454545e-03
3080, 1.714285714286e-03, -1.692307692308e-02, 5.454545454545e-03
3081, 2.857142857143e-03, -1.692307692308e-02, 5.454545454545e-03
3082, 4.000000000000e-03, -1.692307692308e-02, 5.454545454545e-03
3083, 5.142857142857e-03, -1.692307692308e-02, 5.454545454545e-03
3084, 6.285714285714e-03, -1.692307692308e-02, 5.454545454545e-03
3085, 7.428571428571e-03, -1.692307692308e-02, 5.454545454545e-03
3086, 8.571428571429e-03, -1.692307692308e-02, 5.454545454545e-03
3087, 9.714285714286e-03, -1.692307692308e-02, 5.454545454545e-03
3088, 1.085714285714e-02, -1.692307692308e-02, 5.454545454545e-03
3089, 1.200000000000e-02, -1.692307692308e-02, 5.454545454545e-03
3090, 1.314285714286e-02, -1.692307692308e-02, 5.454545454545e-03
3091, 1.428571428571e-02, -1.692307692308e-02, 5.454545454545e-03
3092, 1.542857142857e-02, -1.692307692308e-02, 5.454545454545e-03
3093, 1.657142857143e-02, -1.692307692308e-02, 5.454545454545e-03
3094, 1.771428571429e-02, -1.692307692308e-02, 5.454545454545e-03
3095, 1.885714285714e-02, -1.692307692308e-02, 5.454545454545e-03
3096, 2.000000000000e-02, -1.692307692308e-02, 5.454545454545e-03
3097, -2.000000000000e-02, -1.384615384615e-02, 5.454545454545e-03
3098, -1.885714285714e-02, -1.384615384615e-02, 5.454545454545e-03
3099, -1.771428571429e-02, -1.384615384615e-02, 5.454545454545e-03
3100, -1.657142857143e-02, -1.384615384615e-02, 5.454545454545e-03
3101, -1.542857142857e-02, -1.384615384615e-02, 5.454545454545e-03
3102, -1.428571428571e-02, -1.384615384615e-02, 5.454545454545e-03
3103, -1.314285714286e-02, -1.384615384615e-02, 5.454545454545e-03
3104, -1.200000000000e-02, -1.384615384615e-02, 5.454545454545e-03
3105, -1.085714285714e-02, -1.384615384615e-02, 5.454545454545e-03
3106, -9.714285714286e-03, -1.384615384615e-02, 5.454545454545e-03
3107, -8.571428571429e-03, -1.384615384615e-02, 5.454545454545e-03
3108, -7.428571428571e-03, -1.384615384615e-02, 5.454545454545e-03
3109, -6.285714285714e-03, -1.384615384615e-02, 5.454545454545e-03
3110, -5.142857142857e-03, -1.384615384615e-02, 5.454545454545e-03
3111, -4.000000000000e-03, -1.384615384615e-02, 5.454545454545e-03
3112, -2.857142857143e-03, -1.384615384615e-02, 5.454545454545e-03
3113, -1.714285714286e-03, -1.384615384615e-02, 5.454545454545e-03
3114, -5.714285714286e-04, -1.384615384615e-02, 5.454545454545e-03
3115, 5.714285714286e-04, -1.384615384615e-02, 5.454545454545e-03
3116, 1.714285714286e-03, -1.384615384615e-02, 5.454545454545e-03
3117, 2.857142857143e-03, -1.384615384615e-02, 5.454545454545e-03
3118, 4.000000000000e-03, -1.384615384615e-02, 5.454545454545e-03
3119, 5.142857142857e-03, -1.384615384615e-02, 5.454545454545e-03
3120, 6.285714285714e-03, -1.384615384615e-02, 5.454545454545e-03
3121, 7.428571428571e-03, -1.384615384615e-02, 5.454545454545e-03
3122, 8.571428571429e-03, -1.384615384615e-02, 5.454545454545e-03
3123, 9.714285714286e-03, -1.384615384615e-02, 5.454545454545e-03
3124, 1.085714285714e-02, -1.384615384615e-02, 5.454545454545e-03
3125, 1.200000000000e-02, -1.384615384615e-02, 5.454545454545e-03
3126, 1.314285714286e-02, -1.384615384615e-02, 5.454545454545e-03
3127, 1.428571428571e-02, -1.384615384615e-02, 5.454545454545e-03
3128, 1.542857142857e-02, -1.384615384615e-02, 5.454545454545e-03
3129, 1.657142857143e-02, -1.384615384615e-02, 5.454545454545e-03
3130, 1.771428571429e-02, -1.384615384615e-02, 5.454545454545e-03
3131, 1.885714285714e-02, -1.384615384615e-02, 5.454545454545e-03
3132, 2.000000000000e-02, -1.384615384615e-02, 5.454545454545e-03
3133, -2.000000000000e-02, -1.076923076923e-02, 5.454545454545e-03
3134, -1.885714285714e-02, -1.076923076923e-02, 5.454545454545e-03
3135, -1.771428571429e-02, -1.076923076923e-02, 5.454545454545e-03
3136, -1.657142857143e-02, -1.076923076923e-02, 5.454545454545e-03
3137, -1.542857142857e-02, -1.076923076923e-02, 5.454545454545e-03
3138, -1.428571428571e-02, -1.076923076923e-02, 5.454545454545e-03
3139, -1.314285714286e-02, -1.076923076923e-02, 5.454545454545e-03
3140, -1.200000000000e-02, -1.076923076923e-02, 5.454545454545e-03
3141, -1.085714285714e-02, -1.076923076923e-02, 5.454545454545e-03
3142, -9.714285714286e-03, -1.076923076923e-02, 5.454545454545e-03
3143, -8.571428571429e-03, -1.076923076923e-02, 5.454545454545e-03
3144, -7.428571428571e-03, -1.076923076923e-02, 5.454545454545e-03
3145, -6.285714285714e-03, -1.076923076923e-02, 5.454545454545e-03
3146, -5.142857142857e-03, -1.076923076923e-02, 5.454545454545e-03
3147, -4.000000000000e-03, -1.076923076923e-02, 5.454545454545e-03
3148, -2.857142857143e-03, -1.076923076923e-02, 5.454545454545e-03
3149, -1.714285714286e-03, -1.076923076923e-02, 5.454545454545e-03
3150, -5.714285714286e-04, -1.076923076923e-02, 5.454545454545e-03
3151, 5.714285714286e-04, -1.076923076923e-02, 5.454545454545e-03
3152, 1.714285714286e-03, -1.076923076923e-02, 5.454545454545e-03
3153, 2.857142857143e-03, -1.076923076923e-02, 5.454545454545e-03
3154, 4.000000000000e-03, -1.076923076923e-02, 5.454545454545e-03
3155, 5.142857142857e-03, -1.076923076923e-02, 5.454545454545e-03
3156, 6.285714285714e-03, -1.076923076923e-02, 5.454545454545e-03
3157, 7.428571428571e-03, -1.076923076923e-02, 5.454545454545e-03
3158, 8.571428571429e-03, -1.076923076923e-02, 5.454545454545e-03
3159, 9.714285714286e-03, -1.076923076923e-02, 5.454545454545e-03
3160, 1.085714285714e-02, -1.076923076923e-02, 5.454545454545e-03
3161, 1.200000000000e-02, -1.076923076923e-02, 5.454545454545e-03
3162, 1.314285714286e-02, -1.076923076923e-02, 5.454545454545e-03
3163, 1.428571428571e-02, -1.076923076923e-02, 5.454545454545e-03
3164, 1.542857142857e-02, -1.076923076923e-02, 5.454545454545e-03
3165, 1.657142857143e-02, -1.076923076923e-02, 5.454545454545e-03
3166, 1.771428571429e-02, -1.076923076923e-02, 5.454545454545e-03
3167, 1.885714285714e-02, -1.076923076923e-02, 5.454545454545e-03
3168, 2.000000000000e-02, -1.076923076923e-02, 5.454545454545e-03
3169, -2.000000000000e-02, -7.692307692308e-03, 5.454545454545e-03
3170, -1.885714285714e-02, -7.692307692308e-03, 5.454545454545e-03
3171, -1.771428571429e-02, -7.692307692308e-03, 5.454545454545e-03
3172, -1.657142857143e-02, -7.692307692308e-03, 5.454545454545e-03
3173, -1.542857142857e-02, -7.692307692308e-03, 5.454545454545e-03
3174, -1.428571428571e-02, -7.692307692308e-03, 5.454545454545e-03
3175, -1.314285714286e-02, -7.692307692308e-03, 5.454545454545e-03
3176, -1.200000000000e-02, -7.692307692308e-03, 5.454545454545e-03
3177, -1.085714285714e-02, -7.692307692308e-03, 5.454545454545e-03
3178, -9.714285714286e-03, -7.692307692308e-03, 5.454545454545e-03
3179, -8.571428571429e-03, -7.692307692308e-03, 5.454545454545e-03
3180, -7.428571428571e-03, -7.692307692308e-03, 5.454545454545e-03
3181, -6.285714285714e-03, -7.692307692308e-03, 5.454545454545e-03
3182, -5.142857142857e-03, -7.692307692308e-03, 5.454545454545e-03
3183, -4.000000000000e-03, -7.692307692308e-03, 5.454545454545e-03
3184, -2.857142857143e-03, -7.692307692308e-03, 5.454545454545e-03
3185, -1.714285714286e-03, -7.692307692308e-03, 5.454545454545e-03
3186, -5.714285714286e-04, -7.692307692308e-03, 5.454545454545e-03
3187, 5.714285714286e-04, -7.692307692308e-03, 5.454545454545e-03
3188, 1.714285714286e-03, -7.692307692308e-03, 5.454545454545e-03
3189, 2.857142857143e-03, -7.692307692308e-03, 5.454545454545e-03
3190, 4.000000000000e-03, -7.692307692308e-03, 5.454545454545e-03
3191, 5.142857142857e-03, -7.692307692308e-03, 5.454545454545e-03
3192, 6.285714285714e-03, -7.692307692308e-03, 5.454545454545e-03
3193, 7.428571428571e-03, -7.692307692308e-03, 5.454545454545e-03
3194, 8.571428571429e-03, -7.692307692308e-03, 5.454545454545e-03
3195, 9.714285714286e-03, -7.692307692308e-03, 5.454545454545e-03
3196, 1.085714285714e-02, -7.692307692308e-03, 5.454545454545e-03
3197, 1.200000000000e-02, -7.692307692308e-03, 5.454545454545e-03
3198, 1.314285714286e-02, -7.692307692308e-03, 5.454545454545e-03
3199, 1.428571428571e-02, -7.692307692308e-03, 5.454545454545e-03
3200, 1.542857142857e-02, -7.692307692308e-03, 5.454545454545e-03
3201, 1.657142857143e-02, -7.692307692308e-03, 5.454545454545e-03
3202, 1.771428571429e-02, -7.692307692308e-03, 5.454545454545e-03
3203, 1.885714285714e-02, -7.692307692308e-03, 5.454545454545e-03
3204, 2.000000000000e-02, -7.692307692308e-03, 5.454545454545e-03
3205, -2.000000000000e-02, -4.615384615385e-03, 5.454545454545e-03
3206, -1.885714285714e-02, -4.615384615385e-03, 5.454545454545e-03
3207, -1.771428571429e-02, -4.615384615385e-03, 5.454545454545e-03
3208, -1.657142857143e-02, -4.615384615385e-03, 5.454545454545e-03
3209, -1.542857142857e-02, -4.615384615385e-03, 5.454545454545e-03
3210, -1.428571428571e-02, -4.615384615385e-03, 5.454545454545e-03
3211, -1.314285714286e-02, -4.615384615385e-03, 5.454545454545e-03
3212, -1.200000000000e-02, -4.615384615385e-03, 5.454545454545e-03
3213, -1.085714285714e-02, -4.615384615385e-03, 5.454545454545e-03
3214, -9.714285714286e-03, -4.615384615385e-03, 5.454545454545e-03
3215, -8.571428571429e-03, -4.615384615385e-03, 5.454545454545e-03
3216, -7.428571428571e-03, -4.615384615385e-03, 5.454545454545e-03
3217, -6.285714285714e-03, -4.615384615385e-03, 5.454545454545e-03
3218, -5.142857142857e-03, -4.615384615385e-03, 5.454545454545e-03
3219, -4.000000000000e-03, -4.615384615385e-03, 5.454545454545e-03
3220, -2.857142857143e-03, -4.615384615385e-03, 5.454545454545e-03
3221, -1.714285714286e-03, -4.615384615385e-03, 5.454545454545e-03
3222, -5.714285714286e-04, -4.615384615385e-03, 5.454545454545e-03
3223, 5.714285714286e-04, -4.615384615385e-03, 5.454545454545e-03
3224, 1.714285714286e-03, -4.615384615385e-03, 5.454545454545e-03
3225, 2.857142857143e-03, -4.615384615385e-03, 5.454545454545e-03
3226, 4.000000000000e-03, -4.615384615385e-03, 5.454545454545e-03
3227, 5.142857142857e-03, -4.615384615385e-03, 5.454545454545e-03
3228, 6.285714285714e-03, -4.615384615385e-03, 5.454545454545e-03
3229, 7.428571428571e-03, -4.615384615385e-03, 5.454545454545e-03
3230, 8.571428571429e-03, -4.615384615385e-03, 5.454545454545e-03
3231, 9.714285714286e-03, -4.615384615385e-03, 5.454545454545e-03
3232, 1.085714285714e-02, -4.615384615385e-03, 5.454545454545e-03
3233, 1.200000000000e-02, -4.615384615385e-03, 5.454545454545e-03
3234, 1.314285714286e-02, -4.615384615385e-03, 5.454545454545e-03
3235, 1.428571428571e-02, -4.615384615385e-03, 5.454545454545e-03
3236, 1.542857142857e-02, -4.615384615385e-03, 5.454545454545e-03
3237, 1.657142857143e-02, -4.615384615385e-03, 5.454545454545e-03
3238, 1.771428571429e-02, -4.615384615385e-03, 5.454545454545e-03
3239, 1.885714285714e-02, -4.615384615385e-03, 5.454545454545e-03
3240, 2.000000000000e-02, -4.615384615385e-03, 5.454545454545e-03
3241, -2.000000000000e-02, -1.538461538462e-03, 5.454545454545e-03
3242, -1.885714285714e-02, -1.538461538462e-03, 5.454545454545e-03
3243, -1.771428571429e-02, -1.538461538462e-03, 5.454545454545e-03
3244, -1.657142857143e-02, -1.538461538462e-03, 5.454545454545e-03
3245, -1.542857142857e-02, -1.538461538462e-03, 5.454545454545e-03
3246, -1.428571428571e-02, -1.538461538462e-03, 5.454545454545e-03
3247, -1.314285714286e-02, -1.538461538462e-03, 5.454545454545e-03
3248, -1.200000000000e-02, -1.538461538462e-03, 5.454545454545e-03
3249, -1.085714285714e-02, -1.538461538462e-03, 5.454545454545e-03
3250, -9.714285714286e-03, -1.538461538462e-03, 5.454545454545e-03
3251, -8.571428571429e-03, -1.538461538462e-03, 5.454545454545e-03
3252, -7.428571428571e-03, -1.538461538462e-03, 5.454545454545e-03
3253, -6.285714285714e-03, -1.538461538462e-03, 5.454545454545e-03
3254, -5.142857142857e-03, -1.538461538462e-03, 5.454545454545e-03
3255, -4.000000000000e-03, -1.538461538462e-03, 5.454545454545e-03
3256, -2.857142857143e-03, -1.538461538462e-03, 5.454545454545e-03
3257, -1.714285714286e-03, -1.538461538462e-03, 5.454545454545e-03
3258, -5.714285714286e-04, -1.538461538462e-03, 5.454545454545e-03
3259, 5.714285714286e-04, -1.538461538462e-03, 5.454545454545e-03
3260, 1.714285714286e-03, -1.538461538462e-03, 5.454545454545e-03
3261, 2.857142857143e-03, -1.538461538462e-03, 5.454545454545e-03
3262, 4.000000000000e-03, -1.538461538462e-03, 5.454545454545e-03
3263, 5.142857142857e-03, -1.538461538462e-03, 5.454545454545e-03
3264, 6.285714285714e-03, -1.538461538462e-03, 5.454545454545e-03
3265, 7.428571428571e-03, -1.538461538462e-03, 5.454545454545e-03
3266, 8.571428571429e-03, -1.538461538462e-03, 5.454545454545e-03
3267, 9.714285714286e-03, -1.538461538462e-03, 5.454545454545e-03
3268, 1.085714285714e-02, -1.538461538462e-03, 5.454545454545e-03
3269, 1.200000000000e-02, -1.538461538462e-03, 5.454545454545e-03
3270, 1.314285714286e-02, -1.538461538462e-03, 5.454545454545e-03
3271, 1.428571428571e-02, -1.538461538462e-03, 5.454545454545e-03
3272, 1.542857142857e-02, -1.538461538462e-03, 5.454545454545e-03
3273, 1.657142857143e-02, -1.538461538462e-03, 5.454545454545e-03
3274, 1.771428571429e-02, -1.538461538462e-03, 5.454545454545e-03
3275, 1.885714285714e-02, -1.538461538462e-03, 5.454545454545e-03
3276, 2.000000000000e-02, -1.538461538462e-03, 5.454545454545e-03
3277, -2.000000000000e-02, 1.538461538462e-03, 5.454545454545e-03
3278, -1.885714285714e-02, 1.538461538462e-03, 5.454545454545e-03
3279, -1.771428571429e-02, 1.538461538462e-03, 5.454545454545e-03
3280, -1.657142857143e-02, 1.538461538462e-03, 5.454545454545e-03
3281, -1.542857142857e-02, 1.538461538462e-03, 5.454545454545e-03
3282, -1.428571428571e-02, 1.538461538462e-03, 5.454545454545e-03
3283, -1.314285714286e-02, 1.538461538462e-03, 5.454545454545e-03
3284, -1.200000000000e-02, 1.538461538462e-03, 5.454545454545e-03
3285, -1.085714285714e-02, 1.538461538462e-03, 5.454545454545e-03
3286, -9.714285714286e-03, 1.538461538462e-03, 5.454545454545e-03
3287, -8.571428571429e-03, 1.538461538462e-03, 5.454545454545e-03
3288, -7.428571428571e-03, 1.538461538462e-03, 5.454545454545e-03
3289, -6.285714285714e-03, 1.538461538462e-03, 5.454545454545e-03
3290, -5.142857142857e-03, 1.538461538462e-03, 5.454545454545e-03
3291, -4.000000000000e-03, 1.538461538462e-03, 5.454545454545e-03
3292, -2.857142857143e-03, 1.538461538462e-03, 5.454545454545e-03
3293, -1.714285714286e-03, 1.538461538462e-03, 5.454545454545e-03
3294, -5.714285714286e-04, 1.538461538462e-03, 5.454545454545e-03
3295, 5.714285714286e-04, 1.538461538462e-03, 5.454545454545e-03
3296, 1.714285714286e-03, 1.538461538462e-03, 5.454545454545e-03
3297, 2.857142857143e-03, 1.538461538462e-03, 5.454545454545e-03
3298, 4.000000000000e-03, 1.538461538462e-03, 5.454545454545e-03
3299, 5.142857142857e-03, 1.538461538462e-03, 5.454545454545e-03
3300, 6.285714285714e-03, 1.538461538462e-03, 5.454545454545e-03
3301, 7.428571428571e-03, 1.538461538462e-03, 5.454545454545e-03
3302, 8.571428571429e-03, 1.538461538462e-03, 5.454545454545e-03
3303, 9.714285714286e-03, 1.538461538462e-03, 5.454545454545e-03
3304, 1.085714285714e-02, 1.538461538462e-03, 5.454545454545e-03
3305, 1.200000000000e-02, 1.538461538462e-03, 5.454545454545e-03
3306, 1.314285714286e-02, 1.538461538462e-03, 5.454545454545e-03
3307, 1.428571428571e-02, 1.538461538462e-03, 5.454545454545e-03
3308, 1.542857142857e-02, 1.538461538462e-03, 5.454545454545e-03
3309, 1.657142857143e-02, 1.538461538462e-03, 5.454545454545e-03
3310, 1.771428571429e-02, 1.538461538462e-03, 5.454545454545e-03
3311, 1.885714285714e-02, 1.538461538462e-03, 5.454545454545e-03
3312, 2.000000000000e-02, 1.538461538462e-03, 5.454545454545e-03
3313, -2.000000000000e-02, 4.615384615385e-03, 5.454545454545e-03
3314, -1.885714285714e-02, 4.615384615385e-03, 5.454545454545e-03
3315, -1.771428571429e-02, 4.615384615385e-03, 5.454545454545e-03
3316, -1.657142857143e-02, 4.615384615385e-03, 5.454545454545e-03
3317, -1.542857142857e-02, 4.615384615385e-03, 5.454545454545e-03
3318, -1.428571428571e-02, 4.615384615385e-03, 5.454545454545e-03
3319, -1.314285714286e-02, 4.615384615385e-03, 5.454545454545e-03
3320, -1.200000000000e-02, 4.615384615385e-03, 5.454545454545e-03
3321, -1.085714285714e-02, 4.615384615385e-03, 5.454545454545e-03
3322, -9.714285714286e-03, 4.615384615385e-03, 5.454545454545e-03
3323, -8.571428571429e-03, 4.615384615385e-03, 5.454545454545e-03
3324, -7.428571428571e-03, 4.615384615385e-03, 5.454545454545e-03
3325, -6.285714285714e-03, 4.615384615385e-03, 5.454545454545e-03
3326, -5.142857142857e-03, 4.615384615385e-03, 5.454545454545e-03
3327, -4.000000000000e-03, 4.615384615385e-03, 5.454545454545e-03
3328, -2.857142857143e-03, 4.615384615385e-03, 5.454545454545e-03
3329, -1.714285714286e-03, 4.615384615385e-03, 5.454545454545e-03
3330, -5.714285714286e-04, 4.615384615385e-03, 5.454545454545e-03
3331, 5.714285714286e-04, 4.615384615385e-03, 5.454545454545e-03
3332, 1.714285714286e-03, 4.615384615385e-03, 5.454545454545e-03
3333, 2.857142857143e-03, 4.615384615385e-03, 5.454545454545e-03
3334, 4.000000000000e-03, 4.615384615385e-03, 5.454545454545e-03
3335, 5.142857142857e-03, 4.615384615385e-03, 5.454545454545e-03
3336, 6.285714285714e-03, 4.615384615385e-03, 5.454545454545e-03
3337, 7.428571428571e-03, 4.615384615385e-03, 5.454545454545e-03
3338, 8.571428571429e-03, 4.615384615385e-03, 5.454545454545e-03
3339, 9.714285714286e-03, 4.615384615385e-03, 5.454545454545e-03
3340, 1.085714285714e-02, 4.615384615385e-03, 5.454545454545e-03
3341, 1.200000000000e-02, 4.615384615385e-03, 5.454545454545e-03
3342, 1.314285714286e-02, 4.615384615385e-03, 5.454545454545e-03
3343, 1.428571428571e-02, 4.615384615385e-03, 5.454545454545e-03
3344, 1.542857142857e-02, 4.615384615385e-03, 5.454545454545e-03
3345, 1.657142857143e-02, 4.615384615385e-03, 5.454545454545e-03
3346, 1.771428571429e-02, 4.615384615385e-03, 5.454545454545e-03
3347, 1.885714285714e-02, 4.615384615385e-03, 5.454545454545e-03
3348, 2.000000000000e-02, 4.615384615385e-03, 5.454545454545e-03
3349, -2.000000000000e-02, 7.692307692308e-03, 5.454545454545e-03
3350, -1.885714285714e-02, 7.692307692308e-03, 5.454545454545e-03
3351, -1.771428571429e-02, 7.692307692308e-03, 5.454545454545e-03
3352, -1.657142857143e-02, 7.692307692308e-03, 5.454545454545e-03
3353, -1.542857142857e-02, 7.692307692308e-03, 5.454545454545e-03
3354, -1.428571428571e-02, 7.692307692308e-03, 5.454545454545e-03
3355, -1.314285714286e-02, 7.692307692308e-03, 5.454545454545e-03
3356, -1.200000000000e-02, 7.692307692308e-03, 5.454545454545e-03
3357, -1.085714285714e-02, 7.692307692308e-03, 5.454545454545e-03
3358, -9.714285714286e-03, 7.692307692308e-03, 5.454545454545e-03
3359, -8.571428571429e-03, 7.692307692308e-03, 5.454545454545e-03
3360, -7.428571428571e-03, 7.692307692308e-03, 5.454545454545e-03
3361, -6.285714285714e-03, 7.692307692308e-03, 5.454545454545e-03
3362, -5.142857142857e-03, 7.692307692308e-03, 5.454545454545e-03
3363, -4.000000000000e-03, 7.692307692308e-03, 5.454545454545e-03
3364, -2.857142857143e-03, 7.692307692308e-03, 5.454545454545e-03
3365, -1.714285714286e-03, 7.692307692308e-03, 5.454545454545e-03
3366, -5.714285714286e-04, 7.692307692308e-03, 5.454545454545e-03
3367, 5.714285714286e-04, 7.692307692308e-03, 5.454545454545e-03
3368, 1.714285714286e-03, 7.692307692308e-03, 5.454545454545e-03
3369, 2.857142857143e-03, 7.692307692308e-03, 5.454545454545e-03
3370, 4.000000000000e-03, 7.692307692308e-03, 5.454545454545e-03
3371, 5.142857142857e-03, 7.692307692308e-03, 5.454545454545e-03
3372, 6.285714285714e-03, 7.692307692308e-03, 5.454545454545e-03
3373, 7.428571428571e-03, 7.692307692308e-03, 5.454545454545e-03
3374, 8.571428571429e-03, 7.692307692308e-03, 5.454545454545e-03
3375, 9.714285714286e-03, 7.692307692308e-03, 5.454545454545e-03
3376, 1.085714285714e-02, 7.692307692308e-03, 5.454545454545e-03
3377, 1.200000000000e-02, 7.692307692308e-03, 5.454545454545e-03
3378, 1.314285714286e-02, 7.692307692308e-03, 5.454545454545e-03
3379, 1.428571428571e-02, 7.692307692308e-03, 5.454545454545e-03
3380, 1.542857142857e-02, 7.692307692308e-03, 5.454545454545e-03
3381, 1.657142857143e-02, 7.692307692308e-03, 5.454545454545e-03
3382, 1.771428571429e-02, 7.692307692308e-03, 5.454545454545e-03
3383, 1.885714285714e-02, 7.692307692308e-03, 5.454545454545e-03
3384, 2.000000000000e-02, 7.692307692308e-03, 5.454545454545e-03
3385, -2.000000000000e-02, 1.076923076923e-02, 5.454545454545e-03
3386, -1.885714285714e-02, 1.076923076923e-02, 5.454545454545e-03
3387, -1.771428571429e-02, 1.076923076923e-02, 5.454545454545e-03
3388, -1.657142857143e-02, 1.076923076923e-02, 5.454545454545e-03
3389, -1.542857142857e-02, 1.076923076923e-02, 5.454545454545e-03
3390, -1.428571428571e-02, 1.076923076923e-02, 5.454545454545e-03
3391, -1.314285714286e-02, 1.076923076923e-02, 5.454545454545e-03
3392, -1.200000000000e-02, 1.076923076923e-02, 5.454545454545e-03
3393, -1.085714285714e-02, 1.076923076923e-02, 5.454545454545e-03
3394, -9.714285714286e-03, 1.076923076923e-02, 5.454545454545e-03
3395, -8.571428571429e-03, 1.076923076923e-02, 5.454545454545e-03
3396, -7.428571428571e-03, 1.076923076923e-02, 5.454545454545e-03
3397, -6.285714285714e-03, 1.076923076923e-02, 5.454545454545e-03
3398, -5.142857142857e-03, 1.076923076923e-02, 5.454545454545e-03
3399, -4.000000000000e-03, 1.076923076923e-02, 5.454545454545e-03
3400, -2.857142857143e-03, 1.076923076923e-02, 5.454545454545e-03
3401, -1.714285714286e-03, 1.076923076923e-02, 5.454545454545e-03
3402, -5.714285714286e-04, 1.076923076923e-02, 5.454545454545e-03
3403, 5.714285714286e-04, 1.076923076923e-02, 5.454545454545e-03
3404, 1.714285714286e-03, 1.076923076923e-02, 5.454545454545e-03
3405, 2.857142857143e-03, 1.076923076923e-02, 5.454545454545e-03
3406, 4.000000000000e-03, 1.076923076923e-02, 5.454545454545e-03
3407, 5.142857142857e-03, 1.076923076923e-02, 5.454545454545e-03
3408, 6.285714285714e-03, 1.076923076923e-02, 5.454545454545e-03
3409, 7.428571428571e-03, 1.076923076923e-02, 5.454545454545e-03
3410, 8.571428571429e-03, 1.076923076923e-02, 5.454545454545e-03
3411, 9.714285714286e-03, 1.076923076923e-02, 5.454545454545e-03
3412, 1.085714285714e-02, 1.076923076923e-02, 5.454545454545e-03
3413, 1.200000000000e-02, 1.076923076923e-02, 5.454545454545e-03
3414, 1.314285714286e-02, 1.076923076923e-02, 5.454545454545e-03
3415, 1.428571428571e-02, 1.076923076923e-02, 5.454545454545e-03
3416, 1.542857142857e-02, 1.076923076923e-02, 5.454545454545e-03
3417, 1.657142857143e-02, 1.076923076923e-02, 5.454545454545e-03
3418, 1.771428571429e-02, 1.076923076923e-02, 5.454545454545e-03
3419, 1.885714285714e-02, 1.076923076923e-02, 5.454545454545e-03
3420, 2.000000000000e-02, 1.076923076923e-02, 5.454545454545e-03
3421, -2.000000000000e-02, 1.384615384615e-02, 5.454545454545e-03
3422, -1.885714285714e-02, 1.384615384615e-02, 5.454545454545e-03
3423, -1.771428571429e-02, 1.384615384615e-02, 5.454545454545e-03
3424, -1.657142857143e-02, 1.384615384615e-02, 5.454545454545e-03
3425, -1.542857142857e-02, 1.384615384615e-02, 5.454545454545e-03
3426, -1.428571428571e-02, 1.384615384615e-02, 5.454545454545e-03
3427, -1.314285714286e-02, 1.384615384615e-02, 5.454545454545e-03
3428, -1.200000000000e-02, 1.384615384615e-02, 5.454545454545e-03
3429, -1.085714285714e-02, 1.384615384615e-02, 5.454545454545e-03
3430, -9.714285714286e-03, 1.384615384615e-02, 5.454545454545e-03
3431, -8.571428571429e-03, 1.384615384615e-02, 5.454545454545e-03
3432, -7.428571428571e-03, 1.384615384615e-02, 5.454545454545e-03
3433, -6.285714285714e-03, 1.384615384615e-02, 5.454545454545e-03
3434, -5.142857142857e-03, 1.384615384615e-02, 5.454545454545e-03
3435, -4.000000000000e-03, 1.384615384615e-02, 5.454545454545e-03
3436, -2.857142857143e-03, 1.384615384615e-02, 5.454545454545e-03
3437, -1.714285714286e-03, 1.384615384615e-02, 5.454545454545e-03
3438, -5.714285714286e-04, 1.384615384615e-02, 5.454545454545e-03
3439, 5.714285714286e-04, 1.384615384615e-02, 5.454545454545e-03
3440, 1.714285714286e-03, 1.384615384615e-02, 5.454545454545e-03
3441, 2.857142857143e-03, 1.384615384615e-02, 5.454545454545e-03
3442, 4.000000000000e-03, 1.384615384615e-02, 5.454545454545e-03
3443, 5.142857142857e-03, 1.384615384615e-02, 5.454545454545e-03
3444, 6.285714285714e-03, 1.384615384615e-02, 5.454545454545e-03
3445, 7.428571428571e-03, 1.384615384615e-02, 5.454545454545e-03
3446, 8.571428571429e-03, 1.384615384615e-02, 5.454545454545e-03
3447, 9.714285714286e-03, 1.384615384615e-02, 5.454545454545e-03
3448, 1.085714285714e-02, 1.384615384615e-02, 5.454545454545e-03
3449, 1.200000000000e-02, 1.384615384615e-02, 5.454545454545e-03
3450, 1.314285714286e-02, 1.384615384615e-02, 5.454545454545e-03
3451, 1.428571428571e-02, 1.384615384615e-02, 5.454545454545e-03
3452, 1.542857142857e-02, 1.384615384615e-02, 5.454545454545e-03
3453, 1.657142857143e-02, 1.384615384615e-02, 5.454545454545e-03
3454, 1.771428571429e-02, 1.384615384615e-02, 5.454545454545e-03
3455, 1.885714285714e-02, 1.384615384615e-02, 5.454545454545e-03
3456, 2.000000000000e-02, 1.384615384615e-02, 5.454545454545e-03
3457, -2.000000000000e-02, 1.692307692308e-02, 5.454545454545e-03
3458, -1.885714285714e-02, 1.692307692308e-02, 5.454545454545e-03
3459, -1.771428571429e-02, 1.692307692308e-02, 5.454545454545e-03
3460, -1.657142857143e-02, 1.692307692308e-02, 5.454545454545e-03
3461, -1.542857142857e-02, 1.692307692308e-02, 5.454545454545e-03
3462, -1.428571428571e-02, 1.692307692308e-02, 5.454545454545e-03
3463, -1.314285714286e-02, 1.692307692308e-02, 5.454545454545e-03
3464, -1.200000000000e-02, 1.692307692308e-02, 5.454545454545e-03
3465, -1.085714285714e-02, 1.692307692308e-02, 5.454545454545e-03
3466, -9.714285714286e-03, 1.692307692308e-02, 5.454545454545e-03
3467, -8.571428571429e-03, 1.692307692308e-02, 5.454545454545e-03
3468, -7.428571428571e-03, 1.692307692308e-02, 5.454545454545e-03
3469, -6.285714285714e-03, 1.692307692308e-02, 5.454545454545e-03
3470, -5.142857142857e-03, 1.692307692308e-02, 5.454545454545e-03
3471, -4.000000000000e-03, 1.692307692308e-02, 5.454545454545e-03
3472, -2.857142857143e-03, 1.692307692308e-02, 5.454545454545e-03
3473, -1.714285714286e-03, 1.692307692308e-02, 5.454545454545e-03
3474, -5.714285714286e-04, 1.692307692308e-02, 5.454545454545e-03
3475, 5.714285714286e-04, 1.692307692308e-02, 5.454545454545e-03
3476, 1.714285714286e-03, 1.692307692308e-02, 5.454545454545e-03
3477, 2.857142857143e-03, 1.692307692308e-02, 5.454545454545e-03
3478, 4.000000000000e-03, 1.692307692308e-02, 5.454545454545e-03
3479, 5.142857142857e-03, 1.692307692308e-02, 5.454545454545e-03
3480, 6.285714285714e-03, 1.692307692308e-02, 5.454545454545e-03
3481, 7.428571428571e-03, 1.692307692308e-02, 5.454545454545e-03
3482, 8.571428571429e-03, 1.692307692308e-02, 5.454545454545e-03
3483, 9.714285714286e-03, 1.692307692308e-02, 5.454545454545e-03
3484, 1.085714285714e-02, 1.692307692308e-02, 5.454545454545e-03
3485, 1.200000000000e-02, 1.692307692308e-02, 5.454545454545e-03
3486, 1.314285714286e-02, 1.692307692308e-02, 5.454545454545e-03
3487, 1.428571428571e-02, 1.692307692308e-02, 5.454545454545e-03
3488, 1.542857142857e-02, 1.692307692308e-02, 5.454545454545e-03
3489, 1.657142857143e-02, 1.692307692308e-02, 5.454545454545e-03
3490, 1.771428571429e-02, 1.692307692308e-02, 5.454545454545e-03
3491, 1.885714285714e-02, 1.692307692308e-02, 5.454545454545e-03
3492, 2.000000000000e-02, 1.692307692308e-02, 5.454545454545e-03
3493, -2.000000000000e-02, 2.000000000000e-02, 5.454545454545e-03
3494, -1.885714285714e-02, 2.000000000000e-02, 5.454545454545e-03
3495, -1.771428571429e-02, 2.000000000000e-02, 5.454545454545e-03
3496, -1.657142857143e-02, 2.000000000000e-02, 5.454545454545e-03
3497, -1.542857142857e-02, 2.000000000000e-02, 5.454545454545e-03
3498, -1.428571428571e-02, 2.000000000000e-02, 5.454545454545e-03
3499, -1.314285714286e-02, 2.000000000000e-02, 5.454545454545e-03
3500, -1.200000000000e-02, 2.000000000000e-02, 5.454545454545e-03
3501, -1.085714285714e-02, 2.000000000000e-02, 5.454545454545e-03
3502, -9.714285714286e-03, 2.000000000000e-02, 5.454545454545e-03
3503, -8.571428571429e-03, 2.000000000000e-02, 5.454545454545e-03
3504, -7.428571428571e-03, 2.000000000000e-02, 5.454545454545e-03
3505, -6.285714285714e-03, 2.000000000000e-02, 5.454545454545e-03
3506, -5.142857142857e-03, 2.000000000000e-02, 5.454545454545e-03
3507, -4.000000000000e-03, 2.000000000000e-02, 5.454545454545e-03
3508, -2.857142857143e-03, 2.000000000000e-02, 5.454545454545e-03
3509, -1.714285714286e-03, 2.000000000000e-02, 5.454545454545e-03
3510, -5.714285714286e-04, 2.000000000000e-02, 5.454545454545e-03
3511, 5.714285714286e-04, 2.000000000000e-02, 5.454545454545e-03
3512, 1.714285714286e-03, 2.000000000000e-02, 5.454545454545e-03
3513, 2.857142857143e-03, 2.000000000000e-02, 5.454545454545e-03
3514, 4.000000000000e-03, 2.000000000000e-02, 5.454545454545e-03
3515, 5.142857142857e-03, 2.000000000000e-02, 5.454545454545e-03
3516, 6.285714285714e-03, 2.000000000000e-02, 5.454545454545e-03
3517, 7.428571428571e-03, 2.000000000000e-02, 5.454545454545e-03
3518, 8.571428571429e-03, 2.000000000000e-02, 5.454545454545e-03
3519, 9.714285714286e-03, 2.000000000000e-02, 5.454545454545e-03
3520, 1.085714285714e-02, 2.000000000000e-02, 5.454545454545e-03
3521, 1.200000000000e-02, 2.000000000000e-02, 5.454545454545e-03
3522, 1.314285714286e-02, 2.000000000000e-02, 5.454545454545e-03
3523, 1.428571428571e-02, 2.000000000000e-02, 5.454545454545e-03
3524, 1.542857142857e-02, 2.000000000000e-02, 5.454545454545e-03
3525, 1.657142857143e-02, 2.000000000000e-02, 5.454545454545e-03
3526, 1.771428571429e-02, 2.000000000000e-02, 5.454545454545e-03
3527, 1.885714285714e-02, 2.000000000000e-02, 5.454545454545e-03
3528, 2.000000000000e-02, 2.000000000000e-02, 5.454545454545e-03
3529, -2.000000000000e-02, -2.000000000000e-02, 6.363636363636e-03
3530, -1.885714285714e-02, -2.000000000000e-02, 6.363636363636e-03
3531, -1.771428571429e-02, -2.000000000000e-02, 6.363636363636e-03
3532, -1.657142857143e-02, -2.000000000000e-02, 6.363636363636e-03
3533, -1.542857142857e-02, -2.000000000000e-02, 6.363636363636e-03
3534, -1.428571428571e-02, -2.000000000000e-02, 6.363636363636e-03
3535, -1.314285714286e-02, -2.000000000000e-02, 6.363636363636e-03
3536, -1.200000000000e-02, -2.000000000000e-02, 6.363636363636e-03
3537, -1.085714285714e-02, -2.000000000000e-02, 6.363636363636e-03
3538, -9.714285714286e-03, -2.000000000000e-02, 6.363636363636e-03
3539, -8.571428571429e-03, -2.000000000000e-02, 6.363636363636e-03
3540, -7.428571428571e-03, -2.000000000000e-02, 6.363636363636e-03
3541, -6.285714285714e-03, -2.000000000000e-02, 6.363636363636e-03
3542, -5.142857142857e-03, -2.000000000000e-02, 6.363636363636e-03
3543, -4.000000000000e-03, -2.000000000000e-02, 6.363636363636e-03
3544, -2.857142857143e-03, -2.000000000000e-02, 6.363636363636e-03
3545, -1.714285714286e-03, -2.000000000000e-02, 6.363636363636e-03
3546, -5.714285714286e-04, -2.000000000000e-02, 6.363636363636e-03
3547, 5.714285714286e-04, -2.000000000000e-02, 6.363636363636e-03
3548, 1.714285714286e-03, -2.000000000000e-02, 6.363636363636e-03
3549, 2.857142857143e-03, -2.000000000000e-02, 6.363636363636e-03
3550, 4.000000000000e-03, -2.000000000000e-02, 6.363636363636e-03
3551, 5.142857142857e-03, -2.000000000000e-02, 6.363636363636e-03
3552, 6.285714285714e-03, -2.000000000000e-02, 6.363636363636e-03
3553, 7.428571428571e-03, -2.000000000000e-02, 6.363636363636e-03
3554, 8.571428571429e-03, -2.000000000000e-02, 6.363636363636e-03
3555, 9.714285714286e-03, -2.000000000000e-02, 6.363636363636e-03
3556, 1.085714285714e-02, -2.000000000000e-02, 6.363636363636e-03
3557, 1.200000000000e-02, -2.000000000000e-02, 6.363636363636e-03
3558, 1.314285714286e-02, -2.000000000000e-02, 6.363636363636e-03
3559, 1.428571428571e-02, -2.000000000000e-02, 6.363636363636e-03
3560, 1.542857142857e-02, -2.000000000000e-02, 6.363636363636e-03
3561, 1.657142857143e-02, -2.000000000000e-02, 6.363636363636e-03
3562, 1.771428571429e-02, -2.000000000000e-02, 6.363636363636e-03
3563, 1.885714285714e-02, -2.000000000000e-02, 6.363636363636e-03
3564, 2.000000000000e-02, -2.000000000000e-02, 6.363636363636e-03
3565, -2.000000000000e-02, -1.692307692308e-02, 6.363636363636e-03
3566, -1.885714285714e-02, -1.692307692308e-02, 6.363636363636e-03
3567, -1.771428571429e-02, -1.692307692308e-02, 6.363636363636e-03
3568, -1.657142857143e-02, -1.692307692308e-02, 6.363636363636e-03
3569, -1.542857142857e-02, -1.692307692308e-02, 6.363636363636e-03
3570, -1.428571428571e-02, -1.692307692308e-02, 6.363636363636e-03
3571, -1.314285714286e-02, -1.692307692308e-02, 6.363636363636e-03
3572, -1.200000000000e-02, -1.692307692308e-02, 6.363636363636e-03
3573, -1.085714285714e-02, -1.692307692308e-02, 6.363636363636e-03
3574, -9.714285714286e-03, -1.692307692308e-02, 6.363636363636e-03
3575, -8.571428571429e-03, -1.692307692308e-02, 6.363636363636e-03
3576, -7.428571428571e-03, -1.692307692308e-02, 6.363636363636e-03
3577, -6.285714285714e-03, -1.692307692308e-02, 6.363636363636e-03
3578, -5.142857142857e-03, -1.692307692308e-02, 6.363636363636e-03
3579, -4.000000000000e-03, -1.692307692308e-02, 6.363636363636e-03
3580, -2.857142857143e-03, -1.692307692308e-02, 6.363636363636e-03
3581, -1.714285714286e-03, -1.692307692308e-02, 6.363636363636e-03
3582, -5.714285714286e-04, -1.692307692308e-02, 6.363636363636e-03
3583, 5.714285714286e-04, -1.692307692308e-02, 6.363636363636e-03
3584, 1.714285714286e-03, -1.692307692308e-02, 6.363636363636e-03
3585, 2.857142857143e-03, -1.692307692308e-02, 6.363636363636e-03
3586, 4.000000000000e-03, -1.692307692308e-02, 6.363636363636e-03
3587, 5.142857142857e-03, -1.692307692308e-02, 6.363636363636e-03
3588, 6.285714285714e-03, -1.692307692308e-02, 6.363636363636e-03
3589, 7.428571428571e-03, -1.692307692308e-02, 6.363636363636e-03
3590, 8.571428571429e-03, -1.692307692308e-02, 6.363636363636e-03
3591, 9.714285714286e-03, -1.692307692308e-02, 6.363636363636e-03
3592, 1.085714285714e-02, -1.692307692308e-02, 6.363636363636e-03
3593, 1.200000000000e-02, -1.692307692308e-02, 6.363636363636e-03
3594, 1.314285714286e-02, -1.692307692308e-02, 6.363636363636e-03
3595, 1.428571428571e-02, -1.692307692308e-02, 6.363636363636e-03
3596, 1.542857142857e-02, -1.692307692308e-02, 6.363636363636e-03
3597, 1.657142857143e-02, -1.692307692308e-02, 6.363636363636e-03
3598, 1.771428571429e-02, -1.692307692308e-02, 6.363636363636e-03
3599, 1.885714285714e-02, -1.692307692308e-02, 6.363636363636e-03
3600, 2.000000000000e-02, -1.692307692308e-02, 6.363636363636e-03
3601, -2.000000000000e-02, -1.384615384615e-02, 6.363636363636e-03
3602, -1.885714285714e-02, -1.384615384615e-02, 6.363636363636e-03
3603, -1.771428571429e-02, -1.384615384615e-02, 6.363636363636e-03
3604, -1.657142857143e-02, -1.384615384615e-02, 6.363636363636e-03
3605, -1.542857142857e-02, -1.384615384615e-02, 6.363636363636e-03
3606, -1.428571428571e-02, -1.384615384615e-02, 6.363636363636e-03
3607, -1.314285714286e-02, -1.384615384615e-02, 6.363636363636e-03
3608, -1.200000000000e-02, -1.384615384615e-02, 6.363636363636e-03
3609, -1.085714285714e-02, -1.384615384615e-02, 6.363636363636e-03
3610, -9.714285714286e-03, -1.384615384615e-02, 6.363636363636e-03
3611, -8.571428571429e-03, -1.384615384615e-02, 6.363636363636e-03
3612, -7.428571428571e-03, -1.384615384615e-02, 6.363636363636e-03
3613, -6.285714285714e-03, -1.384615384615e-02, 6.363636363636e-03
3614, -5.142857142857e-03, -1.384615384615e-02, 6.363636363636e-03
3615, -4.000000000000e-03, -1.384615384615e-02, 6.363636363636e-03
3616, -2.857142857143e-03, -1.384615384615e-02, 6.363636363636e-03
3617, -1.714285714286e-03, -1.384615384615e-02, 6.363636363636e-03
3618, -5.714285714286e-04, -1.384615384615e-02, 6.363636363636e-03
3619, 5.714285714286e-04, -1.384615384615e-02, 6.363636363636e-03
3620, 1.714285714286e-03, -1.384615384615e-02, 6.363636363636e-03
3621, 2.857142857143e-03, -1.384615384615e-02, 6.363636363636e-03
3622, 4.000000000000e-03, -1.384615384615e-02, 6.363636363636e-03
3623, 5.142857142857e-03, -1.384615384615e-02, 6.363636363636e-03
3624, 6.285714285714e-03, -1.384615384615e-02, 6.363636363636e-03
3625, 7.428571428571e-03, -1.384615384615e-02, 6.363636363636e-03
3626, 8.571428571429e-03, -1.384615384615e-02, 6.363636363636e-03
3627, 9.714285714286e-03, -1.384615384615e-02, 6.363636363636e-03
3628, 1.085714285714e-02, -1.384615384615e-02, 6.363636363636e-03
3629, 1.200000000000e-02, -1.384615384615e-02, 6.363636363636e-03
3630, 1.314285714286e-02, -1.384615384615e-02, 6.363636363636e-03
3631, 1.428571428571e-02, -1.384615384615e-02, 6.363636363636e-03
3632, 1.542857142857e-02, -1.384615384615e-02, 6.363636363636e-03
3633, 1.657142857143e-02, -1.384615384615e-02, 6.363636363636e-03
3634, 1.771428571429e-02, -1.384615384615e-02, 6.363636363636e-03
3635, 1.885714285714e-02, -1.384615384615e-02, 6.363636363636e-03
3636, 2.000000000000e-02, -1.384615384615e-02, 6.363636363636e-03
3637, -2.000000000000e-02, -1.076923076923e-02, 6.363636363636e-03
3638, -1.885714285714e-02, -1.076923076923e-02, 6.363636363636e-03
3639, -1.771428571429e-02, -1.076923076923e-02, 6.363636363636e-03
3640, -1.657142857143e-02, -1.076923076923e-02, 6.363636363636e-03
3641, -1.542857142857e-02, -1.076923076923e-02, 6.363636363636e-03
3642, -1.428571428571e-02, -1.076923076923e-02, 6.363636363636e-03
3643, -1.314285714286e-02, -1.076923076923e-02, 6.363636363636e-03
3644, -1.200000000000e-02, -1.076923076923e-02, 6.363636363636e-03
3645, -1.085714285714e-02, -1.076923076923e-02, 6.363636363636e-03
3646, -9.714285714286e-03, -1.076923076923e-02, 6.363636363636e-03
3647, -8.571428571429e-03, -1.076923076923e-02, 6.363636363636e-03
3648, -7.428571428571e-03, -1.076923076923e-02, 6.363636363636e-03
3649, -6.285714285714e-03, -1.076923076923e-02, 6.363636363636e-03
3650, -5.142857142857e-03, -1.076923076923e-02, 6.363636363636e-03
3651, -4.000000000000e-03, -1.076923076923e-02, 6.363636363636e-03
3652, -2.857142857143e-03, -1.076923076923e-02, 6.363636363636e-03
3653, -1.714285714286e-03, -1.076923076923e-02, 6.363636363636e-03
3654, -5.714285714286e-04, -1.076923076923e-02, 6.363636363636e-03
3655, 5.714285714286e-04, -1.076923076923e-02, 6.363636363636e-03
3656, 1.714285714286e-03, -1.076923076923e-02, 6.363636363636e-03
3657, 2.857142857143e-03, -1.076923076923e-02, 6.363636363636e-03
3658, 4.000000000000e-03, -1.076923076923e-02, 6.363636363636e-03
3659, 5.142857142857e-03, -1.076923076923e-02, 6.363636363636e-03
3660, 6.285714285714e-03, -1.076923076923e-02, 6.363636363636e-03
3661, 7.428571428571e-03, -1.076923076923e-02, 6.363636363636e-03
3662, 8.571428571429e-03, -1.076923076923e-02, 6.363636363636e-03
3663, 9.714285714286e-03, -1.076923076923e-02, 6.363636363636e-03
3664, 1.085714285714e-02, -1.076923076923e-02, 6.363636363636e-03
3665, 1.200000000000e-02, -1.076923076923e-02, 6.363636363636e-03
3666, 1.314285714286e-02, -1.076923076923e-02, 6.363636363636e-03
3667, 1.428571428571e-02, -1.076923076923e-02, 6.363636363636e-03
3668, 1.542857142857e-02, -1.076923076923e-02, 6.363636363636e-03
3669, 1.657142857143e-02, -1.076923076923e-02, 6.363636363636e-03
3670, 1.771428571429e-02, -1.076923076923e-02, 6.363636363636e-03
3671, 1.885714285714e-02, -1.076923076923e-02, 6.363636363636e-03
3672, 2.000000000000e-02, -1.076923076923e-02, 6.363636363636e-03
3673, -2.000000000000e-02, -7.692307692308e-03, 6.363636363636e-03
3674, -1.885714285714e-02, -7.692307692308e-03, 6.363636363636e-03
3675, -1.771428571429e-02, -7.692307692308e-03, 6.363636363636e-03
3676, -1.657142857143e-02, -7.692307692308e-03, 6.363636363636e-03
3677, -1.542857142857e-02, -7.692307692308e-03, 6.363636363636e-03
3678, -1.428571428571e-02, -7.692307692308e-03, 6.363636363636e-03
3679, -1.314285714286e-02, -7.692307692308e-03, 6.363636363636e-03
3680, -1.200000000000e-02, -7.692307692308e-03, 6.363636363636e-03
3681, -1.085714285714e-02, -7.692307692308e-03, 6.363636363636e-03
3682, -9.714285714286e-03, -7.692307692308e-03, 6.363636363636e-03
3683, -8.571428571429e-03, -7.692307692308e-03, 6.363636363636e-03
3684, -7.428571428571e-03, -7.692307692308e-03, 6.363636363636e-03
3685, -6.285714285714e-03, -7.692307692308e-03, 6.363636363636e-03
3686, -5.142857142857e-03, -7.692307692308e-03, 6.363636363636e-03
3687, -4.000000000000e-03, -7.692307692308e-03, 6.363636363636e-03
3688, -2.857142857143e-03, -7.692307692308e-03, 6.363636363636e-03
3689, -1.714285714286e-03, -7.692307692308e-03, 6.363636363636e-03
3690, -5.714285714286e-04, -7.692307692308e-03, 6.363636363636e-03
3691, 5.714285714286e-04, -7.692307692308e-03, 6.363636363636e-03
3692, 1.714285714286e-03, -7.692307692308e-03, 6.363636363636e-03
3693, 2.857142857143e-03, -7.692307692308e-03, 6.363636363636e-03
3694, 4.000000000000e-03, -7.692307692308e-03, 6.363636363636e-03
3695, 5.142857142857e-03, -7.692307692308e-03, 6.363636363636e-03
3696, 6.285714285714e-03, -7.692307692308e-03, 6.363636363636e-03
3697, 7.428571428571e-03, -7.692307692308e-03, 6.363636363636e-03
3698, 8.571428571429e-03, -7.692307692308e-03, 6.363636363636e-03
3699, 9.714285714286e-03, -7.692307692308e-03, 6.363636363636e-03
3700, 1.085714285714e-02, -7.692307692308e-03, 6.363636363636e-03
3701, 1.200000000000e-02, -7.692307692308e-03, 6.363636363636e-03
3702, 1.314285714286e-02, -7.692307692308e-03, 6.363636363636e-03
3703, 1.428571428571e-02, -7.692307692308e-03, 6.363636363636e-03
3704, 1.542857142857e-02, -7.692307692308e-03, 6.363636363636e-03
3705, 1.657142857143e-02, -7.692307692308e-03, 6.363636363636e-03
3706, 1.771428571429e-02, -7.692307692308e-03, 6.363636363636e-03
3707, 1.885714285714e-02, -7.692307692308e-03, 6.363636363636e-03
3708, 2.000000000000e-02, -7.692307692308e-03, 6.363636363636e-03
3709, -2.000000000000e-02, -4.615384615385e-03, 6.363636363636e-03
3710, -1.885714285714e-02, -4.615384615385e-03, 6.363636363636e-03
3711, -1.771428571429e-02, -4.615384615385e-03, 6.363636363636e-03
3712, -1.657142857143e-02, -4.615384615385e-03, 6.363636363636e-03
3713, -1.542857142857e-02, -4.615384615385e-03, 6.363636363636e-03
3714, -1.428571428571e-02, -4.615384615385e-03, 6.363636363636e-03
3715, -1.314285714286e-02, -4.615384615385e-03, 6.363636363636e-03
3716, -1.200000000000e-02, -4.615384615385e-03, 6.363636363636e-03
3717, -1.085714285714e-02, -4.615384615385e-03, 6.363636363636e-03
3718, -9.714285714286e-03, -4.615384615385e-03, 6.363636363636e-03
3719, -8.571428571429e-03, -4.615384615385e-03, 6.363636363636e-03
3720, -7.428571428571e-03, -4.615384615385e-03, 6.363636363636e-03
3721, -6.285714285714e-03, -4.615384615385e-03, 6.363636363636e-03
3722, -5.142857142857e-03, -4.615384615385e-03, 6.363636363636e-03
3723, -4.000000000000e-03, -4.615384615385e-03, 6.363636363636e-03
3724, -2.857142857143e-03, -4.615384615385e-03, 6.363636363636e-03
3725, -1.714285714286e-03, -4.615384615385e-03, 6.363636363636e-03
3726, -5.714285714286e-04, -4.615384615385e-03, 6.363636363636e-03
3727, 5.714285714286e-04, -4.615384615385e-03, 6.363636363636e-03
3728, 1.714285714286e-03, -4.615384615385e-03, 6.363636363636e-03
3729, 2.857142857143e-03, -4.615384615385e-03, 6.363636363636e-03
3730, 4.000000000000e-03, -4.615384615385e-03, 6.363636363636e-03
3731, 5.142857142857e-03, -4.615384615385e-03, 6.363636363636e-03
3732, 6.285714285714e-03, -4.615384615385e-03, 6.363636363636e-03
3733, 7.428571428571e-03, -4.615384615385e-03, 6.363636363636e-03
3734, 8.571428571429e-03, -4.615384615385e-03, 6.363636363636e-03
3735, 9.714285714286e-03, -4.615384615385e-03, 6.363636363636e-03
3736, 1.085714285714e-02, -4.615384615385e-03, 6.363636363636e-03
3737, 1.200000000000e-02, -4.615384615385e-03, 6.363636363636e-03
3738, 1.314285714286e-02, -4.615384615385e-03, 6.363636363636e-03
3739, 1.428571428571e-02, -4.615384615385e-03, 6.363636363636e-03
3740, 1.542857142857e-02, -4.615384615385e-03, 6.363636363636e-03
3741, 1.657142857143e-02, -4.615384615385e-03, 6.363636363636e-03
3742, 1.771428571429e-02, -4.615384615385e-03, 6.363636363636e-03
3743, 1.885714285714e-02, -4.615384615385e-03, 6.363636363636e-03
3744, 2.000000000000e-02, -4.615384615385e-03, 6.363636363636e-03
3745, -2.000000000000e-02, -1.538461538462e-03, 6.363636363636e-03
3746, -1.885714285714e-02, -1.538461538462e-03, 6.363636363636e-03
3747, -1.771428571429e-02, -1.538461538462e-03, 6.363636363636e-03
3748, -1.657142857143e-02, -1.538461538462e-03, 6.363636363636e-03
3749, -1.542857142857e-02, -1.538461538462e-03, 6.363636363636e-03
3750, -1.428571428571e-02, -1.538461538462e-03, 6.363636363636e-03
3751, -1.314285714286e-02, -1.538461538462e-03, 6.363636363636e-03
3752, -1.200000000000e-02, -1.538461538462e-03, 6.363636363636e-03
3753, -1.085714285714e-02, -1.538461538462e-03, 6.363636363636e-03
3754, -9.714285714286e-03, -1.538461538462e-03, 6.363636363636e-03
3755, -8.571428571429e-03, -1.538461538462e-03, 6.363636363636e-03
3756, -7.428571428571e-03, -1.538461538462e-03, 6.363636363636e-03
3757, -6.285714285714e-03, -1.538461538462e-03, 6.363636363636e-03
3758, -5.142857142857e-03, -1.538461538462e-03, 6.363636363636e-03
3759, -4.000000000000e-03, -1.538461538462e-03, 6.363636363636e-03
3760, -2.857142857143e-03, -1.538461538462e-03, 6.363636363636e-03
3761, -1.714285714286e-03, -1.538461538462e-03, 6.363636363636e-03
3762, -5.714285714286e-04, -1.538461538462e-03, 6.363636363636e-03
3763, 5.714285714286e-04, -1.538461538462e-03, 6.363636363636e-03
3764, 1.714285714286e-03, -1.538461538462e-03, 6.363636363636e-03
3765, 2.857142857143e-03, -1.538461538462e-03, 6.363636363636e-03
3766, 4.000000000000e-03, -1.538461538462e-03, 6.363636363636e-03
3767, 5.142857142857e-03, -1.538461538462e-03, 6.363636363636e-03
3768, 6.285714285714e-03, -1.538461538462e-03, 6.363636363636e-03
3769, 7.428571428571e-03, -1.538461538462e-03, 6.363636363636e-03
3770, 8.571428571429e-03, -1.538461538462e-03, 6.363636363636e-03
3771, 9.714285714286e-03, -1.538461538462e-03, 6.363636363636e-03
3772, 1.085714285714e-02, -1.538461538462e-03, 6.363636363636e-03
3773, 1.200000000000e-02, -1.538461538462e-03, 6.363636363636e-03
3774, 1.314285714286e-02, -1.538461538462e-03, 6.363636363636e-03
3775, 1.428571428571e-02, -1.538461538462e-03, 6.363636363636e-03
3776, 1.542857142857e-02, -1.538461538462e-03, 6.363636363636e-03
3777, 1.657142857143e-02, -1.538461538462e-03, 6.363636363636e-03
3778, 1.771428571429e-02, -1.538461538462e-03, 6.363636363636e-03
3779, 1.885714285714e-02, -1.538461538462e-03, 6.363636363636e-03
3780, 2.000000000000e-02, -1.538461538462e-03, 6.363636363636e-03
3781, -2.000000000000e-02, 1.538461538462e-03, 6.363636363636e-03
3782, -1.885714285714e-02, 1.538461538462e-03, 6.363636363636e-03
3783, -1.771428571429e-02, 1.538461538462e-03, 6.363636363636e-03
3784, -1.657142857143e-02, 1.538461538462e-03, 6.363636363636e-03
3785, -1.542857142857e-02, 1.538461538462e-03, 6.363636363636e-03
3786, -1.428571428571e-02, 1.538461538462e-03, 6.363636363636e-03
3787, -1.314285714286e-02, 1.538461538462e-03, 6.363636363636e-03
3788, -1.200000000000e-02, 1.538461538462e-03, 6.363636363636e-03
3789, -1.085714285714e-02, 1.538461538462e-03, 6.363636363636e-03
3790, -9.714285714286e-03, 1.538461538462e-03, 6.363636363636e-03
3791, -8.571428571429e-03, 1.538461538462e-03, 6.363636363636e-03
3792, -7.428571428571e-03, 1.538461538462e-03, 6.363636363636e-03
3793, -6.285714285714e-03, 1.538461538462e-03, 6.363636363636e-03
3794, -5.142857142857e-03, 1.538461538462e-03, 6.363636363636e-03
3795, -4.000000000000e-03, 1.538461538462e-03, 6.363636363636e-03
3796, -2.857142857143e-03, 1.538461538462e-03, 6.363636363636e-03
3797, -1.714285714286e-03, 1.538461538462e-03, 6.363636363636e-03
3798, -5.714285714286e-04, 1.538461538462e-03, 6.363636363636e-03
3799, 5.714285714286e-04, 1.538461538462e-03, 6.363636363636e-03
3800, 1.714285714286e-03, 1.538461538462e-03, 6.363636363636e-03
3801, 2.857142857143e-03, 1.538461538462e-03, 6.363636363636e-03
3802, 4.000000000000e-03, 1.538461538462e-03, 6.363636363636e-03
3803, 5.142857142857e-03, 1.538461538462e-03, 6.363636363636e-03
3804, 6.285714285714e-03, 1.538461538462e-03, 6.363636363636e-03
3805, 7.428571428571e-03, 1.538461538462e-03, 6.363636363636e-03
3806, 8.571428571429e-03, 1.538461538462e-03, 6.363636363636e-03
3807, 9.714285714286e-03, 1.538461538462e-03, 6.363636363636e-03
3808, 1.085714285714e-02, 1.538461538462e-03, 6.363636363636e-03
3809, 1.200000000000e-02, 1.538461538462e-03, 6.363636363636e-03
3810, 1.314285714286e-02, 1.538461538462e-03, 6.363636363636e-03
3811, 1.428571428571e-02, 1.538461538462e-03, 6.363636363636e-03
3812, 1.542857142857e-02, 1.538461538462e-03, 6.363636363636e-03
3813, 1.657142857143e-02, 1.538461538462e-03, 6.363636363636e-03
3814, 1.771428571429e-02, 1.538461538462e-03, 6.363636363636e-03
3815, 1.885714285714e-02, 1.538461538462e-03, 6.363636363636e-03
3816, 2.000000000000e-02, 1.538461538462e-03, 6.363636363636e-03
3817, -2.000000000000e-02, 4.615384615385e-03, 6.363636363636e-03
3818, -1.885714285714e-02, 4.615384615385e-03, 6.363636363636e-03
3819, -1.771428571429e-02, 4.615384615385e-03, 6.363636363636e-03
3820, -1.657142857143e-02, 4.615384615385e-03, 6.363636363636e-03
3821, -1.542857142857e-02, 4.615384615385e-03, 6.363636363636e-03
3822, -1.428571428571e-02, 4.615384615385e-03, 6.363636363636e-03
3823, -1.314285714286e-02, 4.615384615385e-03, 6.363636363636e-03
3824, -1.200000000000e-02, 4.615384615385e-03, 6.363636363636e-03
3825, -1.085714285714e-02, 4.615384615385e-03, 6.363636363636e-03
3826, -9.714285714286e-03, 4.615384615385e-03, 6.363636363636e-03
3827, -8.571428571429e-03, 4.615384615385e-03, 6.363636363636e-03
3828, -7.428571428571e-03, 4.615384615385e-03, 6.363636363636e-03
3829, -6.285714285714e-03, 4.615384615385e-03, 6.363636363636e-03
3830, -5.142857142857e-03, 4.615384615385e-03, 6.363636363636e-03
3831, -4.000000000000e-03, 4.615384615385e-03, 6.363636363636e-03
3832, -2.857142857143e-03, 4.615384615385e-03, 6.363636363636e-03
3833, -1.714285714286e-03, 4.615384615385e-03, 6.363636363636e-03
3834, -5.714285714286e-04, 4.615384615385e-03, 6.363636363636e-03
3835, 5.714285714286e-04, 4.615384615385e-03, 6.363636363636e-03
3836, 1.714285714286e-03, 4.615384615385e-03, 6.363636363636e-03
3837, 2.857142857143e-03, 4.615384615385e-03, 6.363636363636e-03
3838, 4.000000000000e-03, 4.615384615385e-03, 6.363636363636e-03
3839, 5.142857142857e-03, 4.615384615385e-03, 6.363636363636e-03
3840, 6.285714285714e-03, 4.615384615385e-03, 6.363636363636e-03
3841, 7.428571428571e-03, 4.615384615385e-03, 6.363636363636e-03
3842, 8.571428571429e-03, 4.615384615385e-03, 6.363636363636e-03
3843, 9.714285714286e-03, 4.615384615385e-03, 6.363636363636e-03
3844, 1.085714285714e-02, 4.615384615385e-03, 6.363636363636e-03
3845, 1.200000000000e-02, 4.615384615385e-03, 6.363636363636e-03
3846, 1.314285714286e-02, 4.615384615385e-03, 6.363636363636e-03
3847, 1.428571428571e-02, 4.615384615385e-03, 6.363636363636e-03
3848, 1.542857142857e-02, 4.615384615385e-03, 6.363636363636e-03
3849, 1.657142857143e-02, 4.615384615385e-03, 6.363636363636e-03
3850, 1.771428571429e-02, 4.615384615385e-03, 6.363636363636e-03
3851, 1.885714285714e-02, 4.615384615385e-03, 6.363636363636e-03
3852, 2.000000000000e-02, 4.615384615385e-03, 6.363636363636e-03
3853, -2.000000000000e-02, 7.692307692308e-03, 6.363636363636e-03
3854, -1.885714285714e-02, 7.692307692308e-03, 6.363636363636e-03
3855, -1.771428571429e-02, 7.692307692308e-03, 6.363636363636e-03
3856, -1.657142857143e-02, 7.692307692308e-03, 6.363636363636e-03
3857, -1.542857142857e-02, 7.692307692308e-03, 6.363636363636e-03
3858, -1.428571428571e-02, 7.692307692308e-03, 6.363636363636e-03
3859, -1.314285714286e-02, 7.692307692308e-03, 6.363636363636e-03
3860, -1.200000000000e-02, 7.692307692308e-03, 6.363636363636e-03
3861, -1.085714285714e-02, 7.692307692308e-03, 6.363636363636e-03
3862, -9.714285714286e-03, 7.692307692308e-03, 6.363636363636e-03
3863, -8.571428571429e-03, 7.692307692308e-03, 6.363636363636e-03
3864, -7.428571428571e-03, 7.692307692308e-03, 6.363636363636e-03
3865, -6.285714285714e-03, 7.692307692308e-03, 6.363636363636e-03
3866, -5.142857142857e-03, 7.692307692308e-03, 6.363636363636e-03
3867, -4.000000000000e-03, 7.692307692308e-03, 6.363636363636e-03
3868, -2.857142857143e-03, 7.692307692308e-03, 6.363636363636e-03
3869, -1.714285714286e-03, 7.692307692308e-03, 6.363636363636e-03
3870, -5.714285714286e-04, 7.692307692308e-03, 6.363636363636e-03
3871, 5.714285714286e-04, 7.692307692308e-03, 6.363636363636e-03
3872, 1.714285714286e-03, 7.692307692308e-03, 6.363636363636e-03
3873, 2.857142857143e-03, 7.692307692308e-03, 6.363636363636e-03
3874, 4.000000000000e-03, 7.692307692308e-03, 6.363636363636e-03
3875, 5.142857142857e-03, 7.692307692308e-03, 6.363636363636e-03
3876, 6.285714285714e-03, 7.692307692308e-03, 6.363636363636e-03
3877, 7.428571428571e-03, 7.692307692308e-03, 6.363636363636e-03
3878, 8.571428571429e-03, 7.692307692308e-03, 6.363636363636e-03
3879, 9.714285714286e-03, 7.692307692308e-03, 6.363636363636e-03
3880, 1.085714285714e-02, 7.692307692308e-03, 6.363636363636e-03
3881, 1.200000000000e-02, 7.692307692308e-03, 6.363636363636e-03
3882, 1.314285714286e-02, 7.692307692308e-03, 6.363636363636e-03
3883, 1.428571428571e-02, 7.692307692308e-03, 6.363636363636e-03
3884, 1.542857142857e-02, 7.692307692308e-03, 6.363636363636e-03
3885, 1.657142857143e-02, 7.692307692308e-03, 6.363636363636e-03
3886, 1.771428571429e-02, 7.692307692308e-03, 6.363636363636e-03
3887, 1.885714285714e-02, 7.692307692308e-03, 6.363636363636e-03
3888, 2.000000000000e-02, 7.692307692308e-03, 6.363636363636e-03
3889, -2.000000000000e-02, 1.076923076923e-02, 6.363636363636e-03
3890, -1.885714285714e-02, 1.076923076923e-02, 6.363636363636e-03
3891, -1.771428571429e-02, 1.076923076923e-02, 6.363636363636e-03
3892, -1.657142857143e-02, 1.076923076923e-02, 6.363636363636e-03
3893, -1.542857142857e-02, 1.076923076923e-02, 6.363636363636e-03
3894, -1.428571428571e-02, 1.076923076923e-02, 6.363636363636e-03
3895, -1.314285714286e-02, 1.076923076923e-02, 6.363636363636e-03
3896, -1.200000000000e-02, 1.076923076923e-02, 6.363636363636e-03
3897, -1.085714285714e-02, 1.076923076923e-02, 6.363636363636e-03
3898, -9.714285714286e-03, 1.076923076923e-02, 6.363636363636e-03
3899, -8.571428571429e-03, 1.076923076923e-02, 6.363636363636e-03
3900, -7.428571428571e-03, 1.076923076923e-02, 6.363636363636e-03
3901, -6.285714285714e-03, 1.076923076923e-02, 6.363636363636e-03
3902, -5.142857142857e-03, 1.076923076923e-02, 6.363636363636e-03
3903, -4.000000000000e-03, 1.076923076923e-02, 6.363636363636e-03
3904, -2.857142857143e-03, 1.076923076923e-02, 6.363636363636e-03
3905, -1.714285714286e-03, 1.076923076923e-02, 6.363636363636e-03
3906, -5.714285714286e-04, 1.076923076923e-02, 6.363636363636e-03
3907, 5.714285714286e-04, 1.076923076923e-02, 6.363636363636e-03
3908, 1.714285714286e-03, 1.076923076923e-02, 6.363636363636e-03
3909, 2.857142857143e-03, 1.076923076923e-02, 6.363636363636e-03
3910, 4.000000000000e-03, 1.076923076923e-02, 6.363636363636e-03
3911, 5.142857142857e-03, 1.076923076923e-02, 6.363636363636e-03
3912, 6.285714285714e-03, 1.076923076923e-02, 6.363636363636e-03
3913, 7.428571428571e-03, 1.076923076923e-02, 6.363636363636e-03
3914, 8.571428571429e-03, 1.076923076923e-02, 6.363636363636e-03
3915, 9.714285714286e-03, 1.076923076923e-02, 6.363636363636e-03
3916, 1.085714285714e-02, 1.076923076923e-02, 6.363636363636e-03
3917, 1.200000000000e-02, 1.076923076923e-02, 6.363636363636e-03
3918, 1.314285714286e-02, 1.076923076923e-02, 6.363636363636e-03
3919, 1.428571428571e-02, 1.076923076923e-02, 6.363636363636e-03
3920, 1.542857142857e-02, 1.076923076923e-02, 6.363636363636e-03
3921, 1.657142857143e-02, 1.076923076923e-02, 6.363636363636e-03
3922, 1.771428571429e-02, 1.076923076923e-02, 6.363636363636e-03
3923, 1.885714285714e-02, 1.076923076923e-02, 6.363636363636e-03
3924, 2.000000000000e-02, 1.076923076923e-02, 6.363636363636e-03
3925, -2.000000000000e-02, 1.384615384615e-02, 6.363636363636e-03
3926, -1.885714285714e-02, 1.384615384615e-02, 6.363636363636e-03
3927, -1.771428571429e-02, 1.384615384615e-02, 6.363636363636e-03
3928, -1.657142857143e-02, 1.384615384615e-02, 6.363636363636e-03
3929, -1.542857142857e-02, 1.384615384615e-02, 6.363636363636e-03
3930, -1.428571428571e-02, 1.384615384615e-02, 6.363636363636e-03
3931, -1.314285714286e-02, 1.384615384615e-02, 6.363636363636e-03
3932, -1.200000000000e-02, 1.384615384615e-02, 6.363636363636e-03
3933, -1.085714285714e-02, 1.384615384615e-02, 6.363636363636e-03
3934, -9.714285714286e-03, 1.384615384615e-02, 6.363636363636e-03
3935, -8.571428571429e-03, 1.384615384615e-02, 6.363636363636e-03
3936, -7.428571428571e-03, 1.384615384615e-02, 6.363636363636e-03
3937, -6.285714285714e-03, 1.384615384615e-02, 6.363636363636e-03
3938, -5.142857142857e-03, 1.384615384615e-02, 6.363636363636e-03
3939, -4.000000000000e-03, 1.384615384615e-02, 6.363636363636e-03
3940, -2.857142857143e-03, 1.384615384615e-02, 6.363636363636e-03
3941, -1.714285714286e-03, 1.384615384615e-02, 6.363636363636e-03
3942, -5.714285714286e-04, 1.384615384615e-02, 6.363636363636e-03
3943, 5.714285714286e-04, 1.384615384615e-02, 6.363636363636e-03
3944, 1.714285714286e-03, 1.384615384615e-02, 6.363636363636e-03
3945, 2.857142857143e-03, 1.384615384615e-02, 6.363636363636e-03
3946, 4.000000000000e-03, 1.384615384615e-02, 6.363636363636e-03
3947, 5.142857142857e-03, 1.384615384615e-02, 6.363636363636e-03
3948, 6.285714285714e-03, 1.384615384615e-02, 6.363636363636e-03
3949, 7.428571428571e-03, 1.384615384615e-02, 6.363636363636e-03
3950, 8.571428571429e-03, 1.384615384615e-02, 6.363636363636e-03
3951, 9.714285714286e-03, 1.384615384615e-02, 6.363636363636e-03
3952, 1.085714285714e-02, 1.384615384615e-02, 6.363636363636e-03
3953, 1.200000000000e-02, 1.384615384615e-02, 6.363636363636e-03
3954, 1.314285714286e-02, 1.384615384615e-02, 6.363636363636e-03
3955, 1.428571428571e-02, 1.384615384615e-02, 6.363636363636e-03
3956, 1.542857142857e-02, 1.384615384615e-02, 6.363636363636e-03
3957, 1.657142857143e-02, 1.384615384615e-02, 6.363636363636e-03
3958, 1.771428571429e-02, 1.384615384615e-02, 6.363636363636e-03
3959, 1.885714285714e-02, 1.384615384615e-02, 6.363636363636e-03
3960, 2.000000000000e-02, 1.384615384615e-02, 6.363636363636e-03
3961, -2.000000000000e-02, 1.692307692308e-02, 6.363636363636e-03
3962, -1.885714285714e-02, 1.692307692308e-02, 6.363636363636e-03
3963, -1.771428571429e-02, 1.692307692308e-02, 6.363636363636e-03
3964, -1.657142857143e-02, 1.692307692308e-02, 6.363636363636e-03
3965, -1.542857142857e-02, 1.692307692308e-02, 6.363636363636e-03
3966, -1.428571428571e-02, 1.692307692308e-02, 6.363636363636e-03
3967, -1.314285714286e-02, 1.692307692308e-02, 6.363636363636e-03
3968, -1.200000000000e-02, 1.692307692308e-02, 6.363636363636e-03
3969, -1.085714285714e-02, 1.692307692308e-02, 6.363636363636e-03
3970, -9.714285714286e-03, 1.692307692308e-02, 6.363636363636e-03
3971, -8.571428571429e-03, 1.692307692308e-02, 6.363636363636e-03
3972, -7.428571428571e-03, 1.692307692308e-02, 6.363636363636e-03
3973, -6.285714285714e-03, 1.692307692308e-02, 6.363636363636e-03
3974, -5.142857142857e-03, 1.692307692308e-02, 6.363636363636e-03
3975, -4.000000000000e-03, 1.692307692308e-02, 6.363636363636e-03
3976, -2.857142857143e-03, 1.692307692308e-02, 6.363636363636e-03
3977, -1.714285714286e-03, 1.692307692308e-02, 6.363636363636e-03
3978, -5.714285714286e-04, 1.692307692308e-02, 6.363636363636e-03
3979, 5.714285714286e-04, 1.692307692308e-02, 6.363636363636e-03
3980, 1.714285714286e-03, 1.692307692308e-02, 6.363636363636e-03
3981, 2.857142857143e-03, 1.692307692308e-02, 6.363636363636e-03
3982, 4.000000000000e-03, 1.692307692308e-02, 6.363636363636e-03
3983, 5.142857142857e-03, 1.692307692308e-02, 6.363636363636e-03
3984, 6.285714285714e-03, 1.692307692308e-02, 6.363636363636e-03
3985, 7.428571428571e-03, 1.692307692308e-02, 6.363636363636e-03
3986, 8.571428571429e-03, 1.692307692308e-02, 6.363636363636e-03
3987, 9.714285714286e-03, 1.692307692308e-02, 6.363636363636e-03
3988, 1.085714285714e-02, 1.692307692308e-02, 6.363636363636e-03
3989, 1.200000000000e-02, 1.692307692308e-02, 6.363636363636e-03
3990, 1.314285714286e-02, 1.692307692308e-02, 6.363636363636e-03
3991, 1.428571428571e-02, 1.692307692308e-02, 6.363636363636e-03
3992, 1.542857142857e-02, 1.692307692308e-02, 6.363636363636e-03
3993, 1.657142857143e-02, 1.692307692308e-02, 6.363636363636e-03
3994, 1.771428571429e-02, 1.692307692308e-02, 6.363636363636e-03
3995, 1.885714285714e-02, 1.692307692308e-02, 6.363636363636e-03
3996, 2.000000000000e-02, 1.692307692308e-02, 6.363636363636e-03
3997, -2.000000000000e-02, 2.000000000000e-02, 6.363636363636e-03
3998, -1.885714285714e-02, 2.000000000000e-02, 6.363636363636e-03
3999, -1.771428571429e-02, 2.000000000000e-02, 6.363636363636e-03
4000, -1.657142857143e-02, 2.000000000000e-02, 6.363636363636e-03
4001, -1.542857142857e-02, 2.000000000000e-02, 6.363636363636e-03
4002, -1.428571428571e-02, 2.000000000000e-02, 6.363636363636e-03
4003, -1.314285714286e-02, 2.000000000000e-02, 6.363636363636e-03
4004, -1.200000000000e-02, 2.000000000000e-02, 6.363636363636e-03
4005, -1.085714285714e-02, 2.000000000000e-02, 6.363636363636e-03
4006, -9.714285714286e-03, 2.000000000000e-02, 6.363636363636e-03
4007, -8.571428571429e-03, 2.000000000000e-02, 6.363636363636e-03
4008, -7.428571428571e-03, 2.000000000000e-02, 6.363636363636e-03
4009, -6.285714285714e-03, 2.000000000000e-02, 6.363636363636e-03
4010, -5.142857142857e-03, 2.000000000000e-02, 6.363636363636e-03
4011, -4.000000000000e-03, 2.000000000000e-02, 6.363636363636e-03
4012, -2.857142857143e-03, 2.000000000000e-02, 6.363636363636e-03
4013, -1.714285714286e-03, 2.000000000000e-02, 6.363636363636e-03
4014, -5.714285714286e-04, 2.000000000000e-02, 6.363636363636e-03
4015, 5.714285714286e-04, 2.000000000000e-02, 6.363636363636e-03
4016, 1.714285714286e-03, 2.000000000000e-02, 6.363636363636e-03
4017, 2.857142857143e-03, 2.000000000000e-02, 6.363636363636e-03
4018, 4.000000000000e-03, 2.000000000000e-02, 6.363636363636e-03
4019, 5.142857142857e-03, 2.000000000000e-02, 6.363636363636e-03
4020, 6.285714285714e-03, 2.000000000000e-02, 6.363636363636e-03
4021, 7.428571428571e-03, 2.000000000000e-02, 6.363636363636e-03
4022, 8.571428571429e-03, 2.000000000000e-02, 6.363636363636e-03
4023, 9.714285714286e-03, 2.000000000000e-02, 6.363636363636e-03
4024, 1.085714285714e-02, 2.000000000000e-02, 6.363636363636e-03
4025, 1.200000000000e-02, 2.000000000000e-02, 6.363636363636e-03
4026, 1.314285714286e-02, 2.000000000000e-02, 6.363636363636e-03
4027, 1.428571428571e-02, 2.000000000000e-02, 6.363636363636e-03
4028, 1.542857142857e-02, 2.000000000000e-02, 6.363636363636e-03
4029, 1.657142857143e-02, 2.000000000000e-02, 6.363636363636e-03
4030, 1.771428571429e-02, 2.000000000000e-02, 6.363636363636e-03
4031, 1.885714285714e-02, 2.000000000000e-02, 6.363636363636e-03
4032, 2.000000000000e-02, 2.000000000000e-02, 6.363636363636e-03
4033, -2.000000000000e-02, -2.000000000000e-02, 7.272727272727e-03
4034, -1.885714285714e-02, -2.000000000000e-02, 7.272727272727e-03
4035, -1.771428571429e-02, -2.000000000000e-02, 7.272727272727e-03
4036, -1.657142857143e-02, -2.000000000000e-02, 7.272727272727e-03
4037, -1.542857142857e-02, -2.000000000000e-02, 7.272727272727e-03
4038, -1.428571428571e-02, -2.000000000000e-02, 7.272727272727e-03
4039, -1.314285714286e-02, -2.000000000000e-02, 7.272727272727e-03
4040, -1.200000000000e-02, -2.000000000000e-02, 7.272727272727e-03
4041, -1.085714285714e-02, -2.000000000000e-02, 7.272727272727e-03
4042, -9.714285714286e-03, -2.000000000000e-02, 7.272727272727e-03
4043, -8.571428571429e-03, -2.000000000000e-02, 7.272727272727e-03
4044, -7.428571428571e-03, -2.000000000000e-02, 7.272727272727e-03
4045, -6.285714285714e-03, -2.000000000000e-02, 7.272727272727e-03
4046, -5.142857142857e-03, -2.000000000000e-02, 7.272727272727e-03
4047, -4.000000000000e-03, -2.000000000000e-02, 7.272727272727e-03
4048, -2.857142857143e-03, -2.000000000000e-02, 7.272727272727e-03
4049, -1.714285714286e-03, -2.000000000000e-02, 7.272727272727e-03
4050, -5.714285714286e-04, -2.000000000000e-02, 7.272727272727e-03
4051, 5.714285714286e-04, -2.000000000000e-02, 7.272727272727e-03
4052, 1.714285714286e-03, -2.000000000000e-02, 7.272727272727e-03
4053, 2.857142857143e-03, -2.000000000000e-02, 7.272727272727e-03
4054, 4.000000000000e-03, -2.000000000000e-02, 7.272727272727e-03
4055, 5.142857142857e-03, -2.000000000000e-02, 7.272727272727e-03
4056, 6.285714285714e-03, -2.000000000000e-02, 7.272727272727e-03
4057, 7.428571428571e-03, -2.000000000000e-02, 7.272727272727e-03
4058, 8.571428571429e-03, -2.000000000000e-02, 7.272727272727e-03
4059, 9.714285714286e-03, -2.000000000000e-02, 7.272727272727e-03
4060, 1.085714285714e-02, -2.000000000000e-02, 7.272727272727e-03
4061, 1.200000000000e-02, -2.000000000000e-02, 7.272727272727e-03
4062, 1.314285714286e-02, -2.000000000000e-02, 7.272727272727e-03
4063, 1.428571428571e-02, -2.000000000000e-02, 7.272727272727e-03
4064, 1.542857142857e-02, -2.000000000000e-02, 7.272727272727e-03
4065, 1.657142857143e-02, -2.000000000000e-02, 7.272727272727e-03
4066, 1.771428571429e-02, -2.000000000000e-02, 7.272727272727e-03
4067, 1.885714285714e-02, -2.000000000000e-02, 7.272727272727e-03
4068, 2.000000000000e-02, -2.000000000000e-02, 7.272727272727e-03
4069, -2.000000000000e-02, -1.692307692308e-02, 7.272727272727e-03
4070, -1.885714285714e-02, -1.692307692308e-02, 7.272727272727e-03
4071, -1.771428571429e-02, -1.692307692308e-02, 7.272727272727e-03
4072, -1.657142857143e-02, -1.692307692308e-02, 7.272727272727e-03
4073, -1.542857142857e-02, -1.692307692308e-02, 7.272727272727e-03
4074, -1.428571428571e-02, -1.692307692308e-02, 7.272727272727e-03
4075, -1.314285714286e-02, -1.692307692308e-02, 7.272727272727e-03
4076, -1.200000000000e-02, -1.692307692308e-02, 7.272727272727e-03
4077, -1.085714285714e-02, -1.692307692308e-02, 7.272727272727e-03
4078, -9.714285714286e-03, -1.692307692308e-02, 7.272727272727e-03
4079, -8.571428571429e-03, -1.692307692308e-02, 7.272727272727e-03
4080, -7.428571428571e-03, -1.692307692308e-02, 7.272727272727e-03
4081, -6.285714285714e-03, -1.692307692308e-02, 7.272727272727e-03
4082, -5.142857142857e-03, -1.692307692308e-02, 7.272727272727e-03
4083, -4.000000000000e-03, -1.692307692308e-02, 7.272727272727e-03
4084, -2.857142857143e-03, -1.692307692308e-02, 7.272727272727e-03
4085, -1.714285714286e-03, -1.692307692308e-02, 7.272727272727e-03
4086, -5.714285714286e-04, -1.692307692308e-02, 7.272727272727e-03
4087, 5.714285714286e-04, -1.692307692308e-02, 7.272727272727e-03
4088, 1.714285714286e-03, -1.692307692308e-02, 7.272727272727e-03
4089, 2.857142857143e-03, -1.692307692308e-02, 7.272727272727e-03
4090, 4.000000000000e-03, -1.692307692308e-02, 7.272727272727e-03
4091, 5.142857142857e-03, -1.692307692308e-02, 7.272727272727e-03
4092, 6.285714285714e-03, -1.692307692308e-02, 7.272727272727e-03
4093, 7.428571428571e-03, -1.692307692308e-02, 7.272727272727e-03
4094, 8.571428571429e-03, -1.692307692308e-02, 7.272727272727e-03
4095, 9.714285714286e-03, -1.692307692308e-02, 7.272727272727e-03
4096, 1.085714285714e-02, -1.692307692308e-02, 7.272727272727e-03
4097, 1.200000000000e-02, -1.692307692308e-02, 7.272727272727e-03
4098, 1.314285714286e-02, -1.692307692308e-02, 7.272727272727e-03
4099, 1.428571428571e-02, -1.692307692308e-02, 7.272727272727e-03
4100, 1.542857142857e-02, -1.692307692308e-02, 7.272727272727e-03
4101, 1.657142857143e-02, -1.692307692308e-02, 7.272727272727e-03
4102, 1.771428571429e-02, -1.692307692308e-02, 7.272727272727e-03
4103, 1.885714285714e-02, -1.692307692308e-02, 7.272727272727e-03
4104, 2.000000000000e-02, -1.692307692308e-02, 7.272727272727e-03
4105, -2.000000000000e-02, -1.384615384615e-02, 7.272727272727e-03
4106, -1.885714285714e-02, -1.384615384615e-02, 7.272727272727e-03
4107, -1.771428571429e-02, -1.384615384615e-02, 7.272727272727e-03
4108, -1.657142857143e-02, -1.384615384615e-02, 7.272727272727e-03
4109, -1.542857142857e-02, -1.384615384615e-02, 7.272727272727e-03
4110, -1.428571428571e-02, -1.384615384615e-02, 7.272727272727e-03
4111, -1.314285714286e-02, -1.384615384615e-02, 7.272727272727e-03
4112, -1.200000000000e-02, -1.384615384615e-02, 7.272727272727e-03
4113, -1.085714285714e-02, -1.384615384615e-02, 7.272727272727e-03
4114, -9.714285714286e-03, -1.384615384615e-02, 7.272727272727e-03
4115, -8.571428571429e-03, -1.384615384615e-02, 7.272727272727e-03
4116, -7.428571428571e-03, -1.384615384615e-02, 7.272727272727e-03
4117, -6.285714285714e-03, -1.384615384615e-02, 7.272727272727e-03
4118, -5.142857142857e-03, -1.384615384615e-02, 7.272727272727e-03
4119, -4.000000000000e-03, -1.384615384615e-02, 7.272727272727e-03
4120, -2.857142857143e-03, -1.384615384615e-02, 7.272727272727e-03
4121, -1.714285714286e-03, -1.384615384615e-02, 7.272727272727e-03
4122, -5.714285714286e-04, -1.384615384615e-02, 7.272727272727e-03
4123, 5.714285714286e-04, -1.384615384615e-02, 7.272727272727e-03
4124, 1.714285714286e-03, -1.384615384615e-02, 7.272727272727e-03
4125, 2.857142857143e-03, -1.384615384615e-02, 7.272727272727e-03
4126, 4.000000000000e-03, -1.384615384615e-02, 7.272727272727e-03
4127, 5.142857142857e-03, -1.384615384615e-02, 7.272727272727e-03
4128, 6.285714285714e-03, -1.384615384615e-02, 7.272727272727e-03
4129, 7.428571428571e-03, -1.384615384615e-02, 7.272727272727e-03
4130, 8.571428571429e-03, -1.384615384615e-02, 7.272727272727e-03
4131, 9.714285714286e-03, -1.384615384615e-02, 7.272727272727e-03
4132, 1.085714285714e-02, -1.384615384615e-02, 7.272727272727e-03
4133, 1.200000000000e-02, -1.384615384615e-02, 7.272727272727e-03
4134, 1.314285714286e-02, -1.384615384615e-02, 7.272727272727e-03
4135, 1.428571428571e-02, -1.384615384615e-02, 7.272727272727e-03
4136, 1.542857142857e-02, -1.384615384615e-02, 7.272727272727e-03
4137, 1.657142857143e-02, -1.384615384615e-02, 7.272727272727e-03
4138, 1.771428571429e-02, -1.384615384615e-02, 7.272727272727e-03
4139, 1.885714285714e-02, -1.384615384615e-02, 7.272727272727e-03
4140, 2.000000000000e-02, -1.384615384615e-02, 7.272727272727e-03
4141, -2.000000000000e-02, -1.076923076923e-02, 7.272727272727e-03
4142, -1.885714285714e-02, -1.076923076923e-02, 7.272727272727e-03
4143, -1.771428571429e-02, -1.076923076923e-02, 7.272727272727e-03
4144, -1.657142857143e-02, -1.076923076923e-02, 7.272727272727e-03
4145, -1.542857142857e-02, -1.076923076923e-02, 7.272727272727e-03
4146, -1.428571428571e-02, -1.076923076923e-02, 7.272727272727e-03
4147, -1.314285714286e-02, -1.076923076923e-02, 7.272727272727e-03
4148, -1.200000000000e-02, -1.076923076923e-02, 7.272727272727e-03
4149, -1.085714285714e-02, -1.076923076923e-02, 7.272727272727e-03
4150, -9.714285714286e-03, -1.076923076923e-02, 7.272727272727e-03
4151, -8.571428571429e-03, -1.076923076923e-02, 7.272727272727e-03
4152, -7.428571428571e-03, -1.076923076923e-02, 7.272727272727e-03
4153, -6.285714285714e-03, -1.076923076923e-02, 7.272727272727e-03
4154, -5.142857142857e-03, -1.076923076923e-02, 7.272727272727e-03
4155, -4.000000000000e-03, -1.076923076923e-02, 7.272727272727e-03
4156, -2.857142857143e-03, -1.076923076923e-02, 7.272727272727e-03
4157, -1.714285714286e-03, -1.076923076923e-02, 7.272727272727e-03
4158, -5.714285714286e-04, -1.076923076923e-02, 7.272727272727e-03
4159, 5.714285714286e-04, -1.076923076923e-02, 7.272727272727e-03
4160, 1.714285714286e-03, -1.076923076923e-02, 7.272727272727e-03
4161, 2.857142857143e-03, -1.076923076923e-02, 7.272727272727e-03
4162, 4.000000000000e-03, -1.076923076923e-02, 7.272727272727e-03
4163, 5.142857142857e-03, -1.076923076923e-02, 7.272727272727e-03
4164, 6.285714285714e-03, -1.076923076923e-02, 7.272727272727e-03
4165, 7.428571428571e-03, -1.076923076923e-02, 7.272727272727e-03
4166, 8.571428571429e-03, -1.076923076923e-02, 7.272727272727e-03
4167, 9.714285714286e-03, -1.076923076923e-02, 7.272727272727e-03
4168, 1.085714285714e-02, -1.076923076923e-02, 7.272727272727e-03
4169, 1.200000000000e-02, -1.076923076923e-02, 7.272727272727e-03
4170, 1.314285714286e-02, -1.076923076923e-02, 7.272727272727e-03
4171, 1.428571428571e-02, -1.076923076923e-02, 7.272727272727e-03
4172, 1.542857142857e-02, -1.076923076923e-02, 7.272727272727e-03
4173, 1.657142857143e-02, -1.076923076923e-02, 7.272727272727e-03
4174, 1.771428571429e-02, -1.076923076923e-02, 7.272727272727e-03
4175, 1.885714285714e-02, -1.076923076923e-02, 7.272727272727e-03
4176, 2.000000000000e-02, -1.076923076923e-02, 7.272727272727e-03
4177, -2.000000000000e-02, -7.692307692308e-03, 7.272727272727e-03
4178, -1.885714285714e-02, -7.692307692308e-03, 7.272727272727e-03
4179, -1.771428571429e-02, -7.692307692308e-03, 7.272727272727e-03
4180, -1.657142857143e-02, -7.692307692308e-03, 7.272727272727e-03
4181, -1.542857142857e-02, -7.692307692308e-03, 7.272727272727e-03
4182, -1.428571428571e-02, -7.692307692308e-03, 7.272727272727e-03
4183, -1.314285714286e-02, -7.692307692308e-03, 7.272727272727e-03
4184, -1.200000000000e-02, -7.692307692308e-03, 7.272727272727e-03
4185, -1.085714285714e-02, -7.692307692308e-03, 7.272727272727e-03
4186, -9.714285714286e-03, -7.692307692308e-03, 7.272727272727e-03
4187, -8.571428571429e-03, -7.692307692308e-03, 7.272727272727e-03
4188, -7.428571428571e-03, -7.692307692308e-03, 7.272727272727e-03
4189, -6.285714285714e-03, -7.692307692308e-03, 7.272727272727e-03
4190, -5.142857142857e-03, -7.692307692308e-03, 7.272727272727e-03
4191, -4.000000000000e-03, -7.692307692308e-03, 7.272727272727e-03
4192, -2.857142857143e-03, -7.692307692308e-03, 7.272727272727e-03
4193, -1.714285714286e-03, -7.692307692308e-03, 7.272727272727e-03
4194, -5.714285714286e-04, -7.692307692308e-03, 7.272727272727e-03
4195, 5.714285714286e-04, -7.692307692308e-03, 7.272727272727e-03
4196, 1.714285714286e-03, -7.692307692308e-03, 7.272727272727e-03
4197, 2.857142857143e-03, -7.692307692308e-03, 7.272727272727e-03
4198, 4.000000000000e-03, -7.692307692308e-03, 7.272727272727e-03
4199, 5.142857142857e-03, -7.692307692308e-03, 7.272727272727e-03
4200, 6.285714285714e-03, -7.692307692308e-03, 7.272727272727e-03
4201, 7.428571428571e-03, -7.692307692308e-03, 7.272727272727e-03
4202, 8.571428571429e-03, -7.692307692308e-03, 7.272727272727e-03
4203, 9.714285714286e-03, -7.692307692308e-03, 7.272727272727e-03
4204, 1.085714285714e-02, -7.692307692308e-03, 7.272727272727e-03
4205, 1.200000000000e-02, -7.692307692308e-03, 7.272727272727e-03
4206, 1.314285714286e-02, -7.692307692308e-03, 7.272727272727e-03
4207, 1.428571428571e-02, -7.692307692308e-03, 7.272727272727e-03
4208, 1.542857142857e-02, -7.692307692308e-03, 7.272727272727e-03
4209, 1.657142857143e-02, -7.692307692308e-03, 7.272727272727e-03
4210, 1.771428571429e-02, -7.692307692308e-03, 7.272727272727e-03
4211, 1.885714285714e-02, -7.692307692308e-03, 7.272727272727e-03
4212, 2.000000000000e-02, -7.692307692308e-03, 7.272727272727e-03
4213, -2.000000000000e-02, -4.615384615385e-03, 7.272727272727e-03
4214, -1.885714285714e-02, -4.615384615385e-03, 7.272727272727e-03
4215, -1.771428571429e-02, -4.615384615385e-03, 7.272727272727e-03
4216, -1.657142857143e-02, -4.615384615385e-03, 7.272727272727e-03
4217, -1.542857142857e-02, -4.615384615385e-03, 7.272727272727e-03
4218, -1.428571428571e-02, -4.615384615385e-03, 7.272727272727e-03
4219, -1.314285714286e-02, -4.615384615385e-03, 7.272727272727e-03
4220, -1.200000000000e-02, -4.615384615385e-03, 7.272727272727e-03
4221, -1.085714285714e-02, -4.615384615385e-03, 7.272727272727e-03
4222, -9.714285714286e-03, -4.615384615385e-03, 7.272727272727e-03
4223, -8.571428571429e-03, -4.615384615385e-03, 7.272727272727e-03
4224, -7.428571428571e-03, -4.615384615385e-03, 7.272727272727e-03
4225, -6.285714285714e-03, -4.615384615385e-03, 7.272727272727e-03
4226, -5.142857142857e-03, -4.615384615385e-03, 7.272727272727e-03
4227, -4.000000000000e-03, -4.615384615385e-03, 7.272727272727e-03
4228, -2.857142857143e-03, -4.615384615385e-03, 7.272727272727e-03
4229, -1.714285714286e-03, -4.615384615385e-03, 7.272727272727e-03
4230, -5.714285714286e-04, -4.615384615385e-03, 7.272727272727e-03
4231, 5.714285714286e-04, -4.615384615385e-03, 7.272727272727e-03
4232, 1.714285714286e-03, -4.615384615385e-03, 7.272727272727e-03
4233, 2.857142857143e-03, -4.615384615385e-03, 7.272727272727e-03
4234, 4.000000000000e-03, -4.615384615385e-03, 7.272727272727e-03
4235, 5.142857142857e-03, -4.615384615385e-03, 7.272727272727e-03
4236, 6.285714285714e-03, -4.615384615385e-03, 7.272727272727e-03
4237, 7.428571428571e-03, -4.615384615385e-03, 7.272727272727e-03
4238, 8.571428571429e-03, -4.615384615385e-03, 7.272727272727e-03
4239, 9.714285714286e-03, -4.615384615385e-03, 7.272727272727e-03
4240, 1.085714285714e-02, -4.615384615385e-03, 7.272727272727e-03
4241, 1.200000000000e-02, -4.615384615385e-03, 7.272727272727e-03
4242, 1.314285714286e-02, -4.615384615385e-03, 7.272727272727e-03
4243, 1.428571428571e-02, -4.615384615385e-03, 7.272727272727e-03
4244, 1.542857142857e-02, -4.615384615385e-03, 7.272727272727e-03
4245, 1.657142857143e-02, -4.615384615385e-03, 7.272727272727e-03
4246, 1.771428571429e-02, -4.615384615385e-03, 7.272727272727e-03
4247, 1.885714285714e-02, -4.615384615385e-03, 7.272727272727e-03
4248, 2.000000000000e-02, -4.615384615385e-03, 7.272727272727e-03
4249, -2.000000000000e-02, -1.538461538462e-03, 7.272727272727e-03
4250, -1.885714285714e-02, -1.538461538462e-03, 7.272727272727e-03
4251, -1.771428571429e-02, -1.538461538462e-03, 7.272727272727e-03
4252, -1.657142857143e-02, -1.538461538462e-03, 7.272727272727e-03
4253, -1.542857142857e-02, -1.538461538462e-03, 7.272727272727e-03
4254, -1.428571428571e-02, -1.538461538462e-03, 7.272727272727e-03
4255, -1.314285714286e-02, -1.538461538462e-03, 7.272727272727e-03
4256, -1.200000000000e-02, -1.538461538462e-03, 7.272727272727e-03
4257, -1.085714285714e-02, -1.538461538462e-03, 7.272727272727e-03
4258, -9.714285714286e-03, -1.538461538462e-03, 7.272727272727e-03
4259, -8.571428571429e-03, -1.538461538462e-03, 7.272727272727e-03
4260, -7.428571428571e-03, -1.538461538462e-03, 7.272727272727e-03
4261, -6.285714285714e-03, -1.538461538462e-03, 7.272727272727e-03
4262, -5.142857142857e-03, -1.538461538462e-03, 7.272727272727e-03
4263, -4.000000000000e-03, -1.538461538462e-03, 7.272727272727e-03
4264, -2.857142857143e-03, -1.538461538462e-03, 7.272727272727e-03
4265, -1.714285714286e-03, -1.538461538462e-03, 7.272727272727e-03
4266, -5.714285714286e-04, -1.538461538462e-03, 7.272727272727e-03
4267, 5.714285714286e-04, -1.538461538462e-03, 7.272727272727e-03
4268, 1.714285714286e-03, -1.538461538462e-03, 7.272727272727e-03
4269, 2.857142857143e-03, -1.538461538462e-03, 7.272727272727e-03
4270, 4.000000000000e-03, -1.538461538462e-03, 7.272727272727e-03
4271, 5.142857142857e-03, -1.538461538462e-03, 7.272727272727e-03
4272, 6.285714285714e-03, -1.538461538462e-03, 7.272727272727e-03
4273, 7.428571428571e-03, -1.538461538462e-03, 7.272727272727e-03
4274, 8.571428571429e-03, -1.538461538462e-03, 7.272727272727e-03
4275, 9.714285714286e-03, -1.538461538462e-03, 7.272727272727e-03
4276, 1.085714285714e-02, -1.538461538462e-03, 7.272727272727e-03
4277, 1.200000000000e-02, -1.538461538462e-03, 7.272727272727e-03
4278, 1.314285714286e-02, -1.538461538462e-03, 7.272727272727e-03
4279, 1.428571428571e-02, -1.538461538462e-03, 7.272727272727e-03
4280, 1.542857142857e-02, -1.538461538462e-03, 7.272727272727e-03
4281, 1.657142857143e-02, -1.538461538462e-03, 7.272727272727e-03
4282, 1.771428571429e-02, -1.538461538462e-03, 7.272727272727e-03
4283, 1.885714285714e-02, -1.538461538462e-03, 7.272727272727e-03
4284, 2.000000000000e-02, -1.538461538462e-03, 7.272727272727e-03
4285, -2.000000000000e-02, 1.538461538462e-03, 7.272727272727e-03
4286, -1.885714285714e-02, 1.538461538462e-03, 7.272727272727e-03
4287, -1.771428571429e-02, 1.538461538462e-03, 7.272727272727e-03
4288, -1.657142857143e-02, 1.538461538462e-03, 7.272727272727e-03
4289, -1.542857142857e-02, 1.538461538462e-03, 7.272727272727e-03
4290, -1.428571428571e-02, 1.538461538462e-03, 7.272727272727e-03
4291, -1.314285714286e-02, 1.538461538462e-03, 7.272727272727e-03
4292, -1.200000000000e-02, 1.538461538462e-03, 7.272727272727e-03
4293, -1.085714285714e-02, 1.538461538462e-03, 7.272727272727e-03
4294, -9.714285714286e-03, 1.538461538462e-03, 7.272727272727e-03
4295, -8.571428571429e-03, 1.538461538462e-03, 7.272727272727e-03
4296, -7.428571428571e-03, 1.538461538462e-03, 7.272727272727e-03
4297, -6.285714285714e-03, 1.538461538462e-03, 7.272727272727e-03
4298, -5.142857142857e-03, 1.538461538462e-03, 7.272727272727e-03
4299, -4.000000000000e-03, 1.538461538462e-03, 7.272727272727e-03
4300, -2.857142857143e-03, 1.538461538462e-03, 7.272727272727e-03
4301, -1.714285714286e-03, 1.538461538462e-03, 7.272727272727e-03
4302, -5.714285714286e-04, 1.538461538462e-03, 7.272727272727e-03
4303, 5.714285714286e-04, 1.538461538462e-03, 7.272727272727e-03
4304, 1.714285714286e-03, 1.538461538462e-03, 7.272727272727e-03
4305, 2.857142857143e-03, 1.538461538462e-03, 7.272727272727e-03
4306, 4.000000000000e-03, 1.538461538462e-03, 7.272727272727e-03
4307, 5.142857142857e-03, 1.538461538462e-03, 7.272727272727e-03
4308, 6.285714285714e-03, 1.538461538462e-03, 7.272727272727e-03
4309, 7.428571428571e-03, 1.538461538462e-03, 7.272727272727e-03
4310, 8.571428571429e-03, 1.538461538462e-03, 7.272727272727e-03
4311, 9.714285714286e-03, 1.538461538462e-03, 7.272727272727e-03
4312, 1.085714285714e-02, 1.538461538462e-03, 7.272727272727e-03
4313, 1.200000000000e-02, 1.538461538462e-03, 7.272727272727e-03
4314, 1.314285714286e-02, 1.538461538462e-03, 7.272727272727e-03
4315, 1.428571428571e-02, 1.538461538462e-03, 7.272727272727e-03
4316, 1.542857142857e-02, 1.538461538462e-03, 7.272727272727e-03
4317, 1.657142857143e-02, 1.538461538462e-03, 7.272727272727e-03
4318, 1.771428571429e-02, 1.538461538462e-03, 7.272727272727e-03
4319, 1.885714285714e-02, 1.538461538462e-03, 7.272727272727e-03
4320, 2.000000000000e-02, 1.538461538462e-03, 7.272727272727e-03
4321, -2.000000000000e-02, 4.615384615385e-03, 7.272727272727e-03
4322, -1.885714285714e-02, 4.615384615385e-03, 7.272727272727e-03
4323, -1.771428571429e-02, 4.615384615385e-03, 7.272727272727e-03
4324, -1.657142857143e-02, 4.615384615385e-03, 7.272727272727e-03
4325, -1.542857142857e-02, 4.615384615385e-03, 7.272727272727e-03
4326, -1.428571428571e-02, 4.615384615385e-03, 7.272727272727e-03
4327, -1.314285714286e-02, 4.615384615385e-03, 7.272727272727e-03
4328, -1.200000000000e-02, 4.615384615385e-03, 7.272727272727e-03
4329, -1.085714285714e-02, 4.615384615385e-03, 7.272727272727e-03
4330, -9.714285714286e-03, 4.615384615385e-03, 7.272727272727e-03
4331, -8.571428571429e-03, 4.615384615385e-03, 7.272727272727e-03
4332, -7.428571428571e-03, 4.615384615385e-03, 7.272727272727e-03
4333, -6.285714285714e-03, 4.615384615385e-03, 7.272727272727e-03
4334, -5.142857142857e-03, 4.615384615385e-03, 7.272727272727e-03
4335, -4.000000000000e-03, 4.615384615385e-03, 7.272727272727e-03
4336, -2.857142857143e-03, 4.615384615385e-03, 7.272727272727e-03
4337, -1.714285714286e-03, 4.615384615385e-03, 7.272727272727e-03
4338, -5.714285714286e-04, 4.615384615385e-03, 7.272727272727e-03
4339, 5.714285714286e-04, 4.615384615385e-03, 7.272727272727e-03
4340, 1.714285714286e-03, 4.615384615385e-03, 7.272727272727e-03
4341, 2.857142857143e-03, 4.615384615385e-03, 7.272727272727e-03
4342, 4.000000000000e-03, 4.615384615385e-03, 7.272727272727e-03
4343, 5.142857142857e-03, 4.615384615385e-03, 7.272727272727e-03
4344, 6.285714285714e-03, 4.615384615385e-03, 7.272727272727e-03
4345, 7.428571428571e-03, 4.615384615385e-03, 7.272727272727e-03
4346, 8.571428571429e-03, 4.615384615385e-03, 7.272727272727e-03
4347, 9.714285714286e-03, 4.615384615385e-03, 7.272727272727e-03
4348, 1.085714285714e-02, 4.615384615385e-03, 7.272727272727e-03
4349, 1.200000000000e-02, 4.615384615385e-03, 7.272727272727e-03
4350, 1.314285714286e-02, 4.615384615385e-03, 7.272727272727e-03
4351, 1.428571428571e-02, 4.615384615385e-03, 7.272727272727e-03
4352, 1.542857142857e-02, 4.615384615385e-03, 7.272727272727e-03
4353, 1.657142857143e-02, 4.615384615385e-03, 7.272727272727e-03
4354, 1.771428571429e-02, 4.615384615385e-03, 7.272727272727e-03
4355, 1.885714285714e-02, 4.615384615385e-03, 7.272727272727e-03
4356, 2.000000000000e-02, 4.615384615385e-03, 7.272727272727e-03
4357, -2.000000000000e-02, 7.692307692308e-03, 7.272727272727e-03
4358, -1.885714285714e-02, 7.692307692308e-03, 7.272727272727e-03
4359, -1.771428571429e-02, 7.692307692308e-03, 7.272727272727e-03
4360, -1.657142857143e-02, 7.692307692308e-03, 7.272727272727e-03
4361, -1.542857142857e-02, 7.692307692308e-03, 7.272727272727e-03
4362, -1.428571428571e-02, 7.692307692308e-03, 7.272727272727e-03
4363, -1.314285714286e-02, 7.692307692308e-03, 7.272727272727e-03
4364, -1.200000000000e-02, 7.692307692308e-03, 7.272727272727e-03
4365, -1.085714285714e-02, 7.692307692308e-03, 7.272727272727e-03
4366, -9.714285714286e-03, 7.692307692308e-03, 7.272727272727e-03
4367, -8.571428571429e-03, 7.692307692308e-03, 7.272727272727e-03
4368, -7.428571428571e-03, 7.692307692308e-03, 7.272727272727e-03
4369, -6.285714285714e-03, 7.692307692308e-03, 7.272727272727e-03
4370, -5.142857142857e-03, 7.692307692308e-03, 7.272727272727e-03
4371, -4.000000000000e-03, 7.692307692308e-03, 7.272727272727e-03
4372, -2.857142857143e-03, 7.692307692308e-03, 7.272727272727e-03
4373, -1.714285714286e-03, 7.692307692308e-03, 7.272727272727e-03
4374, -5.714285714286e-04, 7.692307692308e-03, 7.272727272727e-03
4375, 5.714285714286e-04, 7.692307692308e-03, 7.272727272727e-03
4376, 1.714285714286e-03, 7.692307692308e-03, 7.272727272727e-03
4377, 2.857142857143e-03, 7.692307692308e-03, 7.272727272727e-03
4378, 4.000000000000e-03, 7.692307692308e-03, 7.272727272727e-03
4379, 5.142857142857e-03, 7.692307692308e-03, 7.272727272727e-03
4380, 6.285714285714e-03, 7.692307692308e-03, 7.272727272727e-03
4381, 7.428571428571e-03, 7.692307692308e-03, 7.272727272727e-03
4382, 8.571428571429e-03, 7.692307692308e-03, 7.272727272727e-03
4383, 9.714285714286e-03, 7.692307692308e-03, 7.272727272727e-03
4384, 1.085714285714e-02, 7.692307692308e-03, 7.272727272727e-03
4385, 1.200000000000e-02, 7.692307692308e-03, 7.272727272727e-03
4386, 1.314285714286e-02, 7.692307692308e-03, 7.272727272727e-03
4387, 1.428571428571e-02, 7.692307692308e-03, 7.272727272727e-03
4388, 1.542857142857e-02, 7.692307692308e-03, 7.272727272727e-03
4389, 1.657142857143e-02, 7.692307692308e-03, 7.272727272727e-03
4390, 1.771428571429e-02, 7.692307692308e-03, 7.272727272727e-03
4391, 1.885714285714e-02, 7.692307692308e-03, 7.272727272727e-03
4392, 2.000000000000e-02, 7.692307692308e-03, 7.272727272727e-03
4393, -2.000000000000e-02, 1.076923076923e-02, 7.272727272727e-03
4394, -1.885714285714e-02, 1.076923076923e-02, 7.272727272727e-03
4395, -1.771428571429e-02, 1.076923076923e-02, 7.272727272727e-03
4396, -1.657142857143e-02, 1.076923076923e-02, 7.272727272727e-03
4397, -1.542857142857e-02, 1.076923076923e-02, 7.272727272727e-03
4398, -1.428571428571e-02, 1.076923076923e-02, 7.272727272727e-03
4399, -1.314285714286e-02, 1.076923076923e-02, 7.272727272727e-03
4400, -1.200000000000e-02, 1.076923076923e-02, 7.272727272727e-03
4401, -1.085714285714e-02, 1.076923076923e-02, 7.272727272727e-03
4402, -9.714285714286e-03, 1.076923076923e-02, 7.272727272727e-03
4403, -8.571428571429e-03, 1.076923076923e-02, 7.272727272727e-03
4404, -7.428571428571e-03, 1.076923076923e-02, 7.272727272727e-03
4405, -6.285714285714e-03, 1.076923076923e-02, 7.272727272727e-03
4406, -5.142857142857e-03, 1.076923076923e-02, 7.272727272727e-03
4407, -4.000000000000e-03, 1.076923076923e-02, 7.272727272727e-03
4408, -2.857142857143e-03, 1.076923076923e-02, 7.272727272727e-03
4409, -1.714285714286e-03, 1.076923076923e-02, 7.272727272727e-03
4410, -5.714285714286e-04, 1.076923076923e-02, 7.272727272727e-03
4411, 5.714285714286e-04, 1.076923076923e-02, 7.272727272727e-03
4412, 1.714285714286e-03, 1.076923076923e-02, 7.272727272727e-03
4413, 2.857142857143e-03, 1.076923076923e-02, 7.272727272727e-03
4414, 4.000000000000e-03, 1.076923076923e-02, 7.272727272727e-03
4415, 5.142857142857e-03, 1.076923076923e-02, 7.272727272727e-03
4416, 6.285714285714e-03, 1.076923076923e-02, 7.272727272727e-03
4417, 7.428571428571e-03, 1.076923076923e-02, 7.272727272727e-03
4418, 8.571428571429e-03, 1.076923076923e-02, 7.272727272727e-03
4419, 9.714285714286e-03, 1.076923076923e-02, 7.272727272727e-03
4420, 1.085714285714e-02, 1.076923076923e-02, 7.272727272727e-03
4421, 1.200000000000e-02, 1.076923076923e-02, 7.272727272727e-03
4422, 1.314285714286e-02, 1.076923076923e-02, 7.272727272727e-03
4423, 1.428571428571e-02, 1.076923076923e-02, 7.272727272727e-03
4424, 1.542857142857e-02, 1.076923076923e-02, 7.272727272727e-03
4425, 1.657142857143e-02, 1.076923076923e-02, 7.272727272727e-03
4426, 1.771428571429e-02, 1.076923076923e-02, 7.272727272727e-03
4427, 1.885714285714e-02, 1.076923076923e-02, 7.272727272727e-03
4428, 2.000000000000e-02, 1.076923076923e-02, 7.272727272727e-03
4429, -2.000000000000e-02, 1.384615384615e-02, 7.272727272727e-03
4430, -1.885714285714e-02, 1.384615384615e-02, 7.272727272727e-03
4431, -1.771428571429e-02, 1.384615384615e-02, 7.272727272727e-03
4432, -1.657142857143e-02, 1.384615384615e-02, 7.272727272727e-03
4433, -1.542857142857e-02, 1.384615384615e-02, 7.272727272727e-03
4434, -1.428571428571e-02, 1.384615384615e-02, 7.272727272727e-03
4435, -1.314285714286e-02, 1.384615384615e-02, 7.272727272727e-03
4436, -1.200000000000e-02, 1.384615384615e-02, 7.272727272727e-03
4437, -1.085714285714e-02, 1.384615384615e-02, 7.272727272727e-03
4438, -9.714285714286e-03, 1.384615384615e-02, 7.272727272727e-03
4439, -8.571428571429e-03, 1.384615384615e-02, 7.272727272727e-03
4440, -7.428571428571e-03, 1.384615384615e-02, 7.272727272727e-03
4441, -6.285714285714e-03, 1.384615384615e-02, 7.272727272727e-03
4442, -5.142857142857e-03, 1.384615384615e-02, 7.272727272727e-03
4443, -4.000000000000e-03, 1.384615384615e-02, 7.272727272727e-03
4444, -2.857142857143e-03, 1.384615384615e-02, 7.272727272727e-03
4445, -1.714285714286e-03, 1.384615384615e-02, 7.272727272727e-03
4446, -5.714285714286e-04, 1.384615384615e-02, 7.272727272727e-03
4447, 5.714285714286e-04, 1.384615384615e-02, 7.272727272727e-03
4448, 1.714285714286e-03, 1.384615384615e-02, 7.272727272727e-03
4449, 2.857142857143e-03, 1.384615384615e-02, 7.272727272727e-03
4450, 4.000000000000e-03, 1.384615384615e-02, 7.272727272727e-03
4451, 5.142857142857e-03, 1.384615384615e-02, 7.272727272727e-03
4452, 6.285714285714e-03, 1.384615384615e-02, 7.272727272727e-03
4453, 7.428571428571e-03, 1.384615384615e-02, 7.272727272727e-03
4454, 8.571428571429e-03, 1.384615384615e-02, 7.272727272727e-03
4455, 9.714285714286e-03, 1.384615384615e-02, 7.272727272727e-03
4456, 1.085714285714e-02, 1.384615384615e-02, 7.272727272727e-03
4457, 1.200000000000e-02, 1.384615384615e-02, 7.272727272727e-03
4458, 1.314285714286e-02, 1.384615384615e-02, 7.272727272727e-03
4459, 1.428571428571e-02, 1.384615384615e-02, 7.272727272727e-03
4460, 1.542857142857e-02, 1.384615384615e-02, 7.272727272727e-03
4461, 1.657142857143e-02, 1.384615384615e-02, 7.272727272727e-03
4462, 1.771428571429e-02, 1.384615384615e-02, 7.272727272727e-03
4463, 1.885714285714e-02, 1.384615384615e-02, 7.272727272727e-03
4464, 2.000000000000e-02, 1.384615384615e-02, 7.272727272727e-03
4465, -2.000000000000e-02, 1.692307692308e-02, 7.272727272727e-03
4466, -1.885714285714e-02, 1.692307692308e-02, 7.272727272727e-03
4467, -1.771428571429e-02, 1.692307692308e-02, 7.272727272727e-03
4468, -1.657142857143e-02, 1.692307692308e-02, 7.272727272727e-03
4469, -1.542857142857e-02, 1.692307692308e-02, 7.272727272727e-03
4470, -1.428571428571e-02, 1.692307692308e-02, 7.272727272727e-03
4471, -1.314285714286e-02, 1.692307692308e-02, 7.272727272727e-03
4472, -1.200000000000e-02, 1.692307692308e-02, 7.272727272727e-03
4473, -1.085714285714e-02, 1.692307692308e-02, 7.272727272727e-03
4474, -9.714285714286e-03, 1.692307692308e-02, 7.272727272727e-03
4475, -8.571428571429e-03, 1.692307692308e-02, 7.272727272727e-03
4476, -7.428571428571e-03, 1.692307692308e-02, 7.272727272727e-03
4477, -6.285714285714e-03, 1.692307692308e-02, 7.272727272727e-03
4478, -5.142857142857e-03, 1.692307692308e-02, 7.272727272727e-03
4479, -4.000000000000e-03, 1.692307692308e-02, 7.272727272727e-03
4480, -2.857142857143e-03, 1.692307692308e-02, 7.272727272727e-03
4481, -1.714285714286e-03, 1.692307692308e-02, 7.272727272727e-03
4482, -5.714285714286e-04, 1.692307692308e-02, 7.272727272727e-03
4483, 5.714285714286e-04, 1.692307692308e-02, 7.272727272727e-03
4484, 1.714285714286e-03, 1.692307692308e-02, 7.272727272727e-03
4485, 2.857142857143e-03, 1.692307692308e-02, 7.272727272727e-03
4486, 4.000000000000e-03, 1.692307692308e-02, 7.272727272727e-03
4487, 5.142857142857e-03, 1.692307692308e-02, 7.272727272727e-03
4488, 6.285714285714e-03, 1.692307692308e-02, 7.272727272727e-03
4489, 7.428571428571e-03, 1.692307692308e-02, 7.272727272727e-03
4490, 8.571428571429e-03, 1.692307692308e-02, 7.272727272727e-03
4491, 9.714285714286e-03, 1.692307692308e-02, 7.272727272727e-03
4492, 1.085714285714e-02, 1.692307692308e-02, 7.272727272727e-03
4493, 1.200000000000e-02, 1.692307692308e-02, 7.272727272727e-03
4494, 1.314285714286e-02, 1.692307692308e-02, 7.272727272727e-03
4495, 1.428571428571e-02, 1.692307692308e-02, 7.272727272727e-03
4496, 1.542857142857e-02, 1.692307692308e-02, 7.272727272727e-03
4497, 1.657142857143e-02, 1.692307692308e-02, 7.272727272727e-03
4498, 1.771428571429e-02, 1.692307692308e-02, 7.272727272727e-03
4499, 1.885714285714e-02, 1.692307692308e-02, 7.272727272727e-03
4500, 2.000000000000e-02, 1.692307692308e-02, 7.272727272727e-03
4501, -2.000000000000e-02, 2.000000000000e-02, 7.272727272727e-03
4502, -1.885714285714e-02, 2.000000000000e-02, 7.272727272727e-03
4503, -1.771428571429e-02, 2.000000000000e-02, 7.272727272727e-03
4504, -1.657142857143e-02, 2.000000000000e-02, 7.272727272727e-03
4505, -1.542857142857e-02, 2.000000000000e-02, 7.272727272727e-03
4506, -1.428571428571e-02, 2.000000000000e-02, 7.272727272727e-03
4507, -1.314285714286e-02, 2.000000000000e-02, 7.272727272727e-03
4508, -1.200000000000e-02, 2.000000000000e-02, 7.272727272727e-03
4509, -1.085714285714e-02, 2.000000000000e-02, 7.272727272727e-03
4510, -9.714285714286e-03, 2.000000000000e-02, 7.272727272727e-03
4511, -8.571428571429e-03, 2.000000000000e-02, 7.272727272727e-03
4512, -7.428571428571e-03, 2.000000000000e-02, 7.272727272727e-03
4513, -6.285714285714e-03, 2.000000000000e-02, 7.272727272727e-03
4514, -5.142857142857e-03, 2.000000000000e-02, 7.272727272727e-03
4515, -4.000000000000e-03, 2.000000000000e-02, 7.272727272727e-03
4516, -2.857142857143e-03, 2.000000000000e-02, 7.272727272727e-03
4517, -1.714285714286e-03, 2.000000000000e-02, 7.272727272727e-03
4518, -5.714285714286e-04, 2.000000000000e-02, 7.272727272727e-03
4519, 5.714285714286e-04, 2.000000000000e-02, 7.272727272727e-03
4520, 1.714285714286e-03, 2.000000000000e-02, 7.272727272727e-03
4521, 2.857142857143e-03, 2.000000000000e-02, 7.272727272727e-03
4522, 4.000000000000e-03, 2.000000000000e-02, 7.272727272727e-03
4523, 5.142857142857e-03, 2.000000000000e-02, 7.272727272727e-03
4524, 6.285714285714e-03, 2.000000000000e-02, 7.272727272727e-03
4525, 7.428571428571e-03, 2.000000000000e-02, 7.272727272727e-03
4526, 8.571428571429e-03, 2.000000000000e-02, 7.272727272727e-03
4527, 9.714285714286e-03, 2.000000000000e-02, 7.272727272727e-03
4528, 1.085714285714e-02, 2.000000000000e-02, 7.272727272727e-03
4529, 1.200000000000e-02, 2.000000000000e-02, 7.272727272727e-03
4530, 1.314285714286e-02, 2.000000000000e-02, 7.272727272727e-03
4531, 1.428571428571e-02, 2.000000000000e-02, 7.272727272727e-03
4532, 1.542857142857e-02, 2.000000000000e-02, 7.272727272727e-03
4533, 1.657142857143e-02, 2.000000000000e-02, 7.272727272727e-03
4534, 1.771428571429e-02, 2.000000000000e-02, 7.272727272727e-03
4535, 1.885714285714e-02, 2.000000000000e-02, 7.272727272727e-03
4536, 2.000000000000e-02, 2.000000000000e-02, 7.272727272727e-03
4537, -2.000000000000e-02, -2.000000000000e-02, 8.181818181818e-03
4538, -1.885714285714e-02, -2.000000000000e-02, 8.181818181818e-03
4539, -1.771428571429e-02, -2.000000000000e-02, 8.181818181818e-03
4540, -1.657142857143e-02, -2.000000000000e-02, 8.181818181818e-03
4541, -1.542857142857e-02, -2.000000000000e-02, 8.181818181818e-03
4542, -1.428571428571e-02, -2.000000000000e-02, 8.181818181818e-03
4543, -1.314285714286e-02, -2.000000000000e-02, 8.181818181818e-03
4544, -1.200000000000e-02, -2.000000000000e-02, 8.181818181818e-03
4545, -1.085714285714e-02, -2.000000000000e-02, 8.181818181818e-03
4546, -9.714285714286e-03, -2.000000000000e-02, 8.181818181818e-03
4547, -8.571428571429e-03, -2.000000000000e-02, 8.181818181818e-03
4548, -7.428571428571e-03, -2.000000000000e-02, 8.181818181818e-03
4549, -6.285714285714e-03, -2.000000000000e-02, 8.181818181818e-03
4550, -5.142857142857e-03, -2.000000000000e-02, 8.181818181818e-03
4551, -4.000000000000e-03, -2.000000000000e-02, 8.181818181818e-03
4552, -2.857142857143e-03, -2.000000000000e-02, 8.181818181818e-03
4553, -1.714285714286e-03, -2.000000000000e-02, 8.181818181818e-03
4554, -5.714285714286e-04, -2.000000000000e-02, 8.181818181818e-03
4555, 5.714285714286e-04, -2.000000000000e-02, 8.181818181818e-03
4556, 1.714285714286e-03, -2.000000000000e-02, 8.181818181818e-03
4557, 2.857142857143e-03, -2.000000000000e-02, 8.181818181818e-03
4558, 4.000000000000e-03, -2.000000000000e-02, 8.181818181818e-03
4559, 5.142857142857e-03, -2.000000000000e-02, 8.181818181818e-03
4560, 6.285714285714e-03, -2.000000000000e-02, 8.181818181818e-03
4561, 7.428571428571e-03, -2.000000000000e-02, 8.181818181818e-03
4562, 8.571428571429e-03, -2.000000000000e-02, 8.181818181818e-03
4563, 9.714285714286e-03, -2.000000000000e-02, 8.181818181818e-03
4564, 1.085714285714e-02, -2.000000000000e-02, 8.181818181818e-03
4565, 1.200000000000e-02, -2.000000000000e-02, 8.181818181818e-03
4566, 1.314285714286e-02, -2.000000000000e-02, 8.181818181818e-03
4567, 1.428571428571e-02, -2.000000000000e-02, 8.181818181818e-03
4568, 1.542857142857e-02, -2.000000000000e-02, 8.181818181818e-03
4569, 1.657142857143e-02, -2.000000000000e-02, 8.181818181818e-03
4570, 1.771428571429e-02, -2.000000000000e-02, 8.181818181818e-03
4571, 1.885714285714e-02, -2.000000000000e-02, 8.181818181818e-03
4572, 2.000000000000e-02, -2.000000000000e-02, 8.181818181818e-03
4573, -2.000000000000e-02, -1.692307692308e-02, 8.181818181818e-03
4574, -1.885714285714e-02, -1.692307692308e-02, 8.181818181818e-03
4575, -1.771428571429e-02, -1.692307692308e-02, 8.181818181818e-03
4576, -1.657142857143e-02, -1.692307692308e-02, 8.181818181818e-03
4577, -1.542857142857e-02, -1.692307692308e-02, 8.181818181818e-03
4578, -1.428571428571e-02, -1.692307692308e-02, 8.181818181818e-03
4579, -1.314285714286e-02, -1.692307692308e-02, 8.181818181818e-03
4580, -1.200000000000e-02, -1.692307692308e-02, 8.181818181818e-03
4581, -1.085714285714e-02, -1.692307692308e-02, 8.181818181818e-03
4582, -9.714285714286e-03, -1.692307692308e-02, 8.181818181818e-03
4583, -8.571428571429e-03, -1.692307692308e-02, 8.181818181818e-03
4584, -7.428571428571e-03, -1.692307692308e-02, 8.181818181818e-03
4585, -6.285714285714e-03, -1.692307692308e-02, 8.181818181818e-03
4586, -5.142857142857e-03, -1.692307692308e-02, 8.181818181818e-03
4587, -4.000000000000e-03, -1.692307692308e-02, 8.181818181818e-03
4588, -2.857142857143e-03, -1.692307692308e-02, 8.181818181818e-03
4589, -1.714285714286e-03, -1.692307692308e-02, 8.181818181818e-03
4590, -5.714285714286e-04, -1.692307692308e-02, 8.181818181818e-03
4591, 5.714285714286e-04, -1.692307692308e-02, 8.181818181818e-03
4592, 1.714285714286e-03, -1.692307692308e-02, 8.181818181818e-03
4593, 2.857142857143e-03, -1.692307692308e-02, 8.181818181818e-03
4594, 4.000000000000e-03, -1.692307692308e-02, 8.181818181818e-03
4595, 5.142857142857e-03, -1.692307692308e-02, 8.181818181818e-03
4596, 6.285714285714e-03, -1.692307692308e-02, 8.181818181818e-03
4597, 7.428571428571e-03, -1.692307692308e-02, 8.181818181818e-03
4598, 8.571428571429e-03, -1.692307692308e-02, 8.181818181818e-03
4599, 9.714285714286e-03, -1.692307692308e-02, 8.181818181818e-03
4600, 1.085714285714e-02, -1.692307692308e-02, 8.181818181818e-03
4601, 1.200000000000e-02, -1.692307692308e-02, 8.181818181818e-03
4602, 1.314285714286e-02, -1.692307692308e-02, 8.181818181818e-03
4603, 1.428571428571e-02, -1.692307692308e-02, 8.181818181818e-03
4604, 1.542857142857e-02, -1.692307692308e-02, 8.181818181818e-03
4605, 1.657142857143e-02, -1.692307692308e-02, 8.181818181818e-03
4606, 1.771428571429e-02, -1.692307692308e-02, 8.181818181818e-03
4607, 1.885714285714e-02, -1.692307692308e-02, 8.181818181818e-03
4608, 2.000000000000e-02, -1.692307692308e-02, 8.181818181818e-03
4609, -2.000000000000e-02, -1.384615384615e-02, 8.181818181818e-03
4610, -1.885714285714e-02, -1.384615384615e-02, 8.181818181818e-03
4611, -1.771428571429e-02, -1.384615384615e-02, 8.181818181818e-03
4612, -1.657142857143e-02, -1.384615384615e-02, 8.181818181818e-03
4613, -1.542857142857e-02, -1.384615384615e-02, 8.181818181818e-03
4614, -1.428571428571e-02, -1.384615384615e-02, 8.181818181818e-03
4615, -1.314285714286e-02, -1.384615384615e-02, 8.181818181818e-03
4616, -1.200000000000e-02, -1.384615384615e-02, 8.181818181818e-03
4617, -1.085714285714e-02, -1.384615384615e-02, 8.181818181818e-03
4618, -9.714285714286e-03, -1.384615384615e-02, 8.181818181818e-03
4619, -8.571428571429e-03, -1.384615384615e-02, 8.181818181818e-03
4620, -7.428571428571e-03, -1.384615384615e-02, 8.181818181818e-03
4621, -6.285714285714e-03, -1.384615384615e-02, 8.181818181818e-03
4622, -5.142857142857e-03, -1.384615384615e-02, 8.181818181818e-03
4623, -4.000000000000e-03, -1.384615384615e-02, 8.181818181818e-03
4624, -2.857142857143e-03, -1.384615384615e-02, 8.181818181818e-03
4625, -1.714285714286e-03, -1.384615384615e-02, 8.181818181818e-03
4626, -5.714285714286e-04, -1.384615384615e-02, 8.181818181818e-03
4627, 5.714285714286e-04, -1.384615384615e-02, 8.181818181818e-03
4628, 1.714285714286e-03, -1.384615384615e-02, 8.181818181818e-03
4629, 2.857142857143e-03, -1.384615384615e-02, 8.181818181818e-03
4630, 4.000000000000e-03, -1.384615384615e-02, 8.181818181818e-03
4631, 5.142857142857e-03, -1.384615384615e-02, 8.181818181818e-03
4632, 6.285714285714e-03, -1.384615384615e-02, 8.181818181818e-03
4633, 7.428571428571e-03, -1.384615384615e-02, 8.181818181818e-03
4634, 8.571428571429e-03, -1.384615384615e-02, 8.181818181818e-03
4635, 9.714285714286e-03, -1.384615384615e-02, 8.181818181818e-03
4636, 1.085714285714e-02, -1.384615384615e-02, 8.181818181818e-03
4637, 1.200000000000e-02, -1.384615384615e-02, 8.181818181818e-03
4638, 1.314285714286e-02, -1.384615384615e-02, 8.181818181818e-03
4639, 1.428571428571e-02, -1.384615384615e-02, 8.181818181818e-03
4640, 1.542857142857e-02, -1.384615384615e-02, 8.181818181818e-03
4641, 1.657142857143e-02, -1.384615384615e-02, 8.181818181818e-03
4642, 1.771428571429e-02, -1.384615384615e-02, 8.181818181818e-03
4643, 1.885714285714e-02, -1.384615384615e-02, 8.181818181818e-03
4644, 2.000000000000e-02, -1.384615384615e-02, 8.181818181818e-03
4645, -2.000000000000e-02, -1.076923076923e-02, 8.181818181818e-03
4646, -1.885714285714e-02, -1.076923076923e-02, 8.181818181818e-03
4647, -1.771428571429e-02, -1.076923076923e-02, 8.181818181818e-03
4648, -1.657142857143e-02, -1.076923076923e-02, 8.181818181818e-03
4649, -1.542857142857e-02, -1.076923076923e-02, 8.181818181818e-03
4650, -1.428571428571e-02, -1.076923076923e-02, 8.181818181818e-03
4651, -1.314285714286e-02, -1.076923076923e-02, 8.181818181818e-03
4652, -1.200000000000e-02, -1.076923076923e-02, 8.181818181818e-03
4653, -1.085714285714e-02, -1.076923076923e-02, 8.181818181818e-03
4654, -9.714285714286e-03, -1.076923076923e-02, 8.181818181818e-03
4655, -8.571428571429e-03, -1.076923076923e-02, 8.181818181818e-03
4656, -7.428571428571e-03, -1.076923076923e-02, 8.181818181818e-03
4657, -6.285714285714e-03, -1.076923076923e-02, 8.181818181818e-03
4658, -5.142857142857e-03, -1.076923076923e-02, 8.181818181818e-03
4659, -4.000000000000e-03, -1.076923076923e-02, 8.181818181818e-03
4660, -2.857142857143e-03, -1.076923076923e-02, 8.181818181818e-03
4661, -1.714285714286e-03, -1.076923076923e-02, 8.181818181818e-03
4662, -5.714285714286e-04, -1.076923076923e-02, 8.181818181818e-03
4663, 5.714285714286e-04, -1.076923076923e-02, 8.181818181818e-03
4664, 1.714285714286e-03, -1.076923076923e-02, 8.181818181818e-03
4665, 2.857142857143e-03, -1.076923076923e-02, 8.181818181818e-03
4666, 4.000000000000e-03, -1.076923076923e-02, 8.181818181818e-03
4667, 5.142857142857e-03, -1.076923076923e-02, 8.181818181818e-03
4668, 6.285714285714e-03, -1.076923076923e-02, 8.181818181818e-03
4669, 7.428571428571e-03, -1.076923076923e-02, 8.181818181818e-03
4670, 8.571428571429e-03, -1.076923076923e-02, 8.181818181818e-03
4671, 9.714285714286e-03, -1.076923076923e-02, 8.181818181818e-03
4672, 1.085714285714e-02, -1.076923076923e-02, 8.181818181818e-03
4673, 1.200000000000e-02, -1.076923076923e-02, 8.181818181818e-03
4674, 1.314285714286e-02, -1.076923076923e-02, 8.181818181818e-03
4675, 1.428571428571e-02, -1.076923076923e-02, 8.181818181818e-03
4676, 1.542857142857e-02, -1.076923076923e-02, 8.181818181818e-03
4677, 1.657142857143e-02, -1.076923076923e-02, 8.181818181818e-03
4678, 1.771428571429e-02, -1.076923076923e-02, 8.181818181818e-03
4679, 1.885714285714e-02, -1.076923076923e-02, 8.181818181818e-03
4680, 2.000000000000e-02, -1.076923076923e-02, 8.181818181818e-03
4681, -2.000000000000e-02, -7.692307692308e-03, 8.181818181818e-03
4682, -1.885714285714e-02, -7.692307692308e-03, 8.181818181818e-03
4683, -1.771428571429e-02, -7.692307692308e-03, 8.181818181818e-03
4684, -1.657142857143e-02, -7.692307692308e-03, 8.181818181818e-03
4685, -1.542857142857e-02, -7.692307692308e-03, 8.181818181818e-03
4686, -1.428571428571e-02, -7.692307692308e-03, 8.181818181818e-03
4687, -1.314285714286e-02, -7.692307692308e-03, 8.181818181818e-03
4688, -1.200000000000e-02, -7.692307692308e-03, 8.181818181818e-03
4689, -1.085714285714e-02, -7.692307692308e-03, 8.181818181818e-03
4690, -9.714285714286e-03, -7.692307692308e-03, 8.181818181818e-03
4691, -8.571428571429e-03, -7.692307692308e-03, 8.181818181818e-03
4692, -7.428571428571e-03, -7.692307692308e-03, 8.181818181818e-03
4693, -6.285714285714e-03, -7.692307692308e-03, 8.181818181818e-03
4694, -5.142857142857e-03, -7.692307692308e-03, 8.181818181818e-03
4695, -4.000000000000e-03, -7.692307692308e-03, 8.181818181818e-03
4696, -2.857142857143e-03, -7.692307692308e-03, 8.181818181818e-03
4697, -1.714285714286e-03, -7.692307692308e-03, 8.181818181818e-03
4698, -5.714285714286e-04, -7.692307692308e-03, 8.181818181818e-03
4699, 5.714285714286e-04, -7.692307692308e-03, 8.181818181818e-03
4700, 1.714285714286e-03, -7.692307692308e-03, 8.181818181818e-03
4701, 2.857142857143e-03, -7.692307692308e-03, 8.181818181818e-03
4702, 4.000000000000e-03, -7.692307692308e-03, 8.181818181818e-03
4703, 5.142857142857e-03, -7.692307692308e-03, 8.181818181818e-03
4704, 6.285714285714e-03, -7.692307692308e-03, 8.181818181818e-03
4705, 7.428571428571e-03, -7.692307692308e-03, 8.181818181818e-03
4706, 8.571428571429e-03, -7.692307692308e-03, 8.181818181818e-03
4707, 9.714285714286e-03, -7.692307692308e-03, 8.181818181818e-03
4708, 1.085714285714e-02, -7.692307692308e-03, 8.181818181818e-03
4709, 1.200000000000e-02, -7.692307692308e-03, 8.181818181818e-03
4710, 1.314285714286e-02, -7.692307692308e-03, 8.181818181818e-03
4711, 1.428571428571e-02, -7.692307692308e-03, 8.181818181818e-03
4712, 1.542857142857e-02, -7.692307692308e-03, 8.181818181818e-03
4713, 1.657142857143e-02, -7.692307692308e-03, 8.181818181818e-03
4714, 1.771428571429e-02, -7.692307692308e-03, 8.181818181818e-03
4715, 1.885714285714e-02, -7.692307692308e-03, 8.181818181818e-03
4716, 2.000000000000e-02, -7.692307692308e-03, 8.181818181818e-03
4717, -2.000000000000e-02, -4.615384615385e-03, 8.181818181818e-03
4718, -1.885714285714e-02, -4.615384615385e-03, 8.181818181818e-03
4719, -1.771428571429e-02, -4.615384615385e-03, 8.181818181818e-03
4720, -1.657142857143e-02, -4.615384615385e-03, 8.181818181818e-03
4721, -1.542857142857e-02, -4.615384615385e-03, 8.181818181818e-03
4722, -1.428571428571e-02, -4.615384615385e-03, 8.181818181818e-03
4723, -1.314285714286e-02, -4.615384615385e-03, 8.181818181818e-03
4724, -1.200000000000e-02, -4.615384615385e-03, 8.181818181818e-03
4725, -1.085714285714e-02, -4.615384615385e-03, 8.181818181818e-03
4726, -9.714285714286e-03, -4.615384615385e-03, 8.181818181818e-03
4727, -8.571428571429e-03, -4.615384615385e-03, 8.181818181818e-03
4728, -7.428571428571e-03, -4.615384615385e-03, 8.181818181818e-03
4729, -6.285714285714e-03, -4.615384615385e-03, 8.181818181818e-03
4730, -5.142857142857e-03, -4.615384615385e-03, 8.181818181818e-03
4731, -4.000000000000e-03, -4.615384615385e-03, 8.181818181818e-03
4732, -2.857142857143e-03, -4.615384615385e-03, 8.181818181818e-03
4733, -1.714285714286e-03, -4.615384615385e-03, 8.181818181818e-03
4734, -5.714285714286e-04, -4.615384615385e-03, 8.181818181818e-03
4735, 5.714285714286e-04, -4.615384615385e-03, 8.181818181818e-03
4736, 1.714285714286e-03, -4.615384615385e-03, 8.181818181818e-03
4737, 2.857142857143e-03, -4.615384615385e-03, 8.181818181818e-03
4738, 4.000000000000e-03, -4.615384615385e-03, 8.181818181818e-03
4739, 5.142857142857e-03, -4.615384615385e-03, 8.181818181818e-03
4740, 6.285714285714e-03, -4.615384615385e-03, 8.181818181818e-03
4741, 7.428571428571e-03, -4.615384615385e-03, 8.181818181818e-03
4742, 8.571428571429e-03, -4.615384615385e-03, 8.181818181818e-03
4743, 9.714285714286e-03, -4.615384615385e-03, 8.181818181818e-03
4744, 1.085714285714e-02, -4.615384615385e-03, 8.181818181818e-03
4745, 1.200000000000e-02, -4.615384615385e-03, 8.181818181818e-03
4746, 1.314285714286e-02, -4.615384615385e-03, 8.181818181818e-03
4747, 1.428571428571e-02, -4.615384615385e-03, 8.181818181818e-03
4748, 1.542857142857e-02, -4.615384615385e-03, 8.181818181818e-03
4749, 1.657142857143e-02, -4.615384615385e-03, 8.181818181818e-03
4750, 1.771428571429e-02, -4.615384615385e-03, 8.181818181818e-03
4751, 1.885714285714e-02, -4.615384615385e-03, 8.181818181818e-03
4752, 2.000000000000e-02, -4.615384615385e-03, 8.181818181818e-03
4753, -2.000000000000e-02, -1.538461538462e-03, 8.181818181818e-03
4754, -1.885714285714e-02, -1.538461538462e-03, 8.181818181818e-03
4755, -1.771428571429e-02, -1.538461538462e-03, 8.181818181818e-03
4756, -1.657142857143e-02, -1.538461538462e-03, 8.181818181818e-03
4757, -1.542857142857e-02, -1.538461538462e-03, 8.181818181818e-03
4758, -1.428571428571e-02, -1.538461538462e-03, 8.181818181818e-03
4759, -1.314285714286e-02, -1.538461538462e-03, 8.181818181818e-03
4760, -1.200000000000e-02, -1.538461538462e-03, 8.181818181818e-03
4761, -1.085714285714e-02, -1.538461538462e-03, 8.181818181818e-03
4762, -9.714285714286e-03, -1.538461538462e-03, 8.181818181818e-03
4763, -8.571428571429e-03, -1.538461538462e-03, 8.181818181818e-03
4764, -7.428571428571e-03, -1.538461538462e-03, 8.181818181818e-03
4765, -6.285714285714e-03, -1.538461538462e-03, 8.181818181818e-03
4766, -5.142857142857e-03, -1.538461538462e-03, 8.181818181818e-03
4767, -4.000000000000e-03, -1.538461538462e-03, 8.181818181818e-03
4768, -2.857142857143e-03, -1.538461538462e-03, 8.181818181818e-03
4769, -1.714285714286e-03, -1.538461538462e-03, 8.181818181818e-03
4770, -5.714285714286e-04, -1.538461538462e-03, 8.181818181818e-03
4771, 5.714285714286e-04, -1.538461538462e-03, 8.181818181818e-03
4772, 1.714285714286e-03, -1.538461538462e-03, 8.181818181818e-03
4773, 2.857142857143e-03, -1.538461538462e-03, 8.181818181818e-03
4774, 4.000000000000e-03, -1.538461538462e-03, 8.181818181818e-03
4775, 5.142857142857e-03, -1.538461538462e-03, 8.181818181818e-03
4776, 6.285714285714e-03, -1.538461538462e-03, 8.181818181818e-03
4777, 7.428571428571e-03, -1.538461538462e-03, 8.181818181818e-03
4778, 8.571428571429e-03, -1.538461538462e-03, 8.181818181818e-03
4779, 9.714285714286e-03, -1.538461538462e-03, 8.181818181818e-03
4780, 1.085714285714e-02, -1.538461538462e-03, 8.181818181818e-03
4781, 1.200000000000e-02, -1.538461538462e-03, 8.181818181818e-03
4782, 1.314285714286e-02, -1.538461538462e-03, 8.181818181818e-03
4783, 1.428571428571e-02, -1.538461538462e-03, 8.181818181818e-03
4784, 1.542857142857e-02, -1.538461538462e-03, 8.181818181818e-03
4785, 1.657142857143e-02, -1.538461538462e-03, 8.181818181818e-03
4786, 1.771428571429e-02, -1.538461538462e-03, 8.181818181818e-03
4787, 1.885714285714e-02, -1.538461538462e-03, 8.181818181818e-03
4788, 2.000000000000e-02, -1.538461538462e-03, 8.181818181818e-03
4789, -2.000000000000e-02, 1.538461538462e-03, 8.181818181818e-03
4790, -1.885714285714e-02, 1.538461538462e-03, 8.181818181818e-03
4791, -1.771428571429e-02, 1.538461538462e-03, 8.181818181818e-03
4792, -1.657142857143e-02, 1.538461538462e-03, 8.181818181818e-03
4793, -1.542857142857e-02, 1.538461538462e-03, 8.181818181818e-03
4794, -1.428571428571e-02, 1.538461538462e-03, 8.181818181818e-03
4795, -1.314285714286e-02, 1.538461538462e-03, 8.181818181818e-03
4796, -1.200000000000e-02, 1.538461538462e-03, 8.181818181818e-03
4797, -1.085714285714e-02, 1.538461538462e-03, 8.181818181818e-03
4798, -9.714285714286e-03, 1.538461538462e-03, 8.181818181818e-03
4799, -8.571428571429e-03, 1.538461538462e-03, 8.181818181818e-03
4800, -7.428571428571e-03, 1.538461538462e-03, 8.181818181818e-03
4801, -6.285714285714e-03, 1.538461538462e-03, 8.181818181818e-03
4802, -5.142857142857e-03, 1.538461538462e-03, 8.181818181818e-03
4803, -4.000000000000e-03, 1.538461538462e-03, 8.181818181818e-03
4804, -2.857142857143e-03, 1.538461538462e-03, 8.181818181818e-03
4805, -1.714285714286e-03, 1.538461538462e-03, 8.181818181818e-03
4806, -5.714285714286e-04, 1.538461538462e-03, 8.181818181818e-03
4807, 5.714285714286e-04, 1.538461538462e-03, 8.181818181818e-03
4808, 1.714285714286e-03, 1.538461538462e-03, 8.181818181818e-03
4809, 2.857142857143e-03, 1.538461538462e-03, 8.181818181818e-03
4810, 4.000000000000e-03, 1.538461538462e-03, 8.181818181818e-03
4811, 5.142857142857e-03, 1.538461538462e-03, 8.181818181818e-03
4812, 6.285714285714e-03, 1.538461538462e-03, 8.181818181818e-03
4813, 7.428571428571e-03, 1.538461538462e-03, 8.181818181818e-03
4814, 8.571428571429e-03, 1.538461538462e-03, 8.181818181818e-03
4815, 9.714285714286e-03, 1.538461538462e-03, 8.181818181818e-03
4816, 1.085714285714e-02, 1.538461538462e-03, 8.181818181818e-03
4817, 1.200000000000e-02, 1.538461538462e-03, 8.181818181818e-03
4818, 1.314285714286e-02, 1.538461538462e-03, 8.181818181818e-03
4819, 1.428571428571e-02, 1.538461538462e-03, 8.181818181818e-03
4820, 1.542857142857e-02, 1.538461538462e-03, 8.181818181818e-03
4821, 1.657142857143e-02, 1.538461538462e-03, 8.181818181818e-03
4822, 1.771428571429e-02, 1.538461538462e-03, 8.181818181818e-03
4823, 1.885714285714e-02, 1.538461538462e-03, 8.181818181818e-03
4824, 2.000000000000e-02, 1.538461538462e-03, 8.181818181818e-03
4825, -2.000000000000e-02, 4.615384615385e-03, 8.181818181818e-03
4826, -1.885714285714e-02, 4.615384615385e-03, 8.181818181818e-03
4827, -1.771428571429e-02, 4.615384615385e-03, 8.181818181818e-03
4828, -1.657142857143e-02, 4.615384615385e-03, 8.181818181818e-03
4829, -1.542857142857e-02, 4.615384615385e-03, 8.181818181818e-03
4830, -1.428571428571e-02, 4.615384615385e-03, 8.181818181818e-03
4831, -1.314285714286e-02, 4.615384615385e-03, 8.181818181818e-03
4832, -1.200000000000e-02, 4.615384615385e-03, 8.181818181818e-03
4833, -1.085714285714e-02, 4.615384615385e-03, 8.181818181818e-03
4834, -9.714285714286e-03, 4.615384615385e-03, 8.181818181818e-03
4835, -8.571428571429e-03, 4.615384615385e-03, 8.181818181818e-03
4836, -7.428571428571e-03, 4.615384615385e-03, 8.181818181818e-03
4837, -6.285714285714e-03, 4.615384615385e-03, 8.181818181818e-03
4838, -5.142857142857e-03, 4.615384615385e-03, 8.181818181818e-03
4839, -4.000000000000e-03, 4.615384615385e-03, 8.181818181818e-03
4840, -2.857142857143e-03, 4.615384615385e-03, 8.181818181818e-03
4841, -1.714285714286e-03, 4.615384615385e-03, 8.181818181818e-03
4842, -5.714285714286e-04, 4.615384615385e-03, 8.181818181818e-03
4843, 5.714285714286e-04, 4.615384615385e-03, 8.181818181818e-03
4844, 1.714285714286e-03, 4.615384615385e-03, 8.181818181818e-03
4845, 2.857142857143e-03, 4.615384615385e-03, 8.181818181818e-03
4846, 4.000000000000e-03, 4.615384615385e-03, 8.181818181818e-03
4847, 5.142857142857e-03, 4.615384615385e-03, 8.181818181818e-03
4848, 6.285714285714e-03, 4.615384615385e-03, 8.181818181818e-03
4849, 7.428571428571e-03, 4.615384615385e-03, 8.181818181818e-03
4850, 8.571428571429e-03, 4.615384615385e-03, 8.181818181818e-03
4851, 9.714285714286e-03, 4.615384615385e-03, 8.181818181818e-03
4852, 1.085714285714e-02, 4.615384615385e-03, 8.181818181818e-03
4853, 1.200000000000e-02, 4.615384615385e-03, 8.181818181818e-03
4854, 1.314285714286e-02, 4.615384615385e-03, 8.181818181818e-03
4855, 1.428571428571e-02, 4.615384615385e-03, 8.181818181818e-03
4856, 1.542857142857e-02, 4.615384615385e-03, 8.181818181818e-03
4857, 1.657142857143e-02, 4.615384615385e-03, 8.181818181818e-03
4858, 1.771428571429e-02, 4.615384615385e-03, 8.181818181818e-03
4859, 1.885714285714e-02, 4.615384615385e-03, 8.181818181818e-03
4860, 2.000000000000e-02, 4.615384615385e-03, 8.181818181818e-03
4861, -2.000000000000e-02, 7.692307692308e-03, 8.181818181818e-03
4862, -1.885714285714e-02, 7.692307692308e-03, 8.181818181818e-03
4863, -1.771428571429e-02, 7.692307692308e-03, 8.181818181818e-03
4864, -1.657142857143e-02, 7.692307692308e-03, 8.181818181818e-03
4865, -1.542857142857e-02, 7.692307692308e-03, 8.181818181818e-03
4866, -1.428571428571e-02, 7.692307692308e-03, 8.181818181818e-03
4867, -1.314285714286e-02, 7.692307692308e-03, 8.181818181818e-03
4868, -1.200000000000e-02, 7.692307692308e-03, 8.181818181818e-03
4869, -1.085714285714e-02, 7.692307692308e-03, 8.181818181818e-03
4870, -9.714285714286e-03, 7.692307692308e-03, 8.181818181818e-03
4871, -8.571428571429e-03, 7.692307692308e-03, 8.181818181818e-03
4872, -7.428571428571e-03, 7.692307692308e-03, 8.181818181818e-03
4873, -6.285714285714e-03, 7.692307692308e-03, 8.181818181818e-03
4874, -5.142857142857e-03, 7.692307692308e-03, 8.181818181818e-03
4875, -4.000000000000e-03, 7.692307692308e-03, 8.181818181818e-03
4876, -2.857142857143e-03, 7.692307692308e-03, 8.181818181818e-03
4877, -1.714285714286e-03, 7.692307692308e-03, 8.181818181818e-03
4878, -5.714285714286e-04, 7.692307692308e-03, 8.181818181818e-03
4879, 5.714285714286e-04, 7.692307692308e-03, 8.181818181818e-03
4880, 1.714285714286e-03, 7.692307692308e-03, 8.181818181818e-03
4881, 2.857142857143e-03, 7.692307692308e-03, 8.181818181818e-03
4882, 4.000000000000e-03, 7.692307692308e-03, 8.181818181818e-03
4883, 5.142857142857e-03, 7.692307692308e-03, 8.181818181818e-03
4884, 6.285714285714e-03, 7.692307692308e-03, 8.181818181818e-03
4885, 7.428571428571e-03, 7.692307692308e-03, 8.181818181818e-03
4886, 8.571428571429e-03, 7.692307692308e-03, 8.181818181818e-03
4887, 9.714285714286e-03, 7.692307692308e-03, 8.181818181818e-03
4888, 1.085714285714e-02, 7.692307692308e-03, 8.181818181818e-03
4889, 1.200000000000e-02, 7.692307692308e-03, 8.181818181818e-03
4890, 1.314285714286e-02, 7.692307692308e-03, 8.181818181818e-03
4891, 1.428571428571e-02, 7.692307692308e-03, 8.181818181818e-03
4892, 1.542857142857e-02, 7.692307692308e-03, 8.181818181818e-03
4893, 1.657142857143e-02, 7.692307692308e-03, 8.181818181818e-03
4894, 1.771428571429e-02, 7.692307692308e-03, 8.181818181818e-03
4895, 1.885714285714e-02, 7.692307692308e-03, 8.181818181818e-03
4896, 2.000000000000e-02, 7.692307692308e-03, 8.181818181818e-03
4897, -2.000000000000e-02, 1.076923076923e-02, 8.181818181818e-03
4898, -1.885714285714e-02, 1.076923076923e-02, 8.181818181818e-03
4899, -1.771428571429e-02, 1.076923076923e-02, 8.181818181818e-03
4900, -1.657142857143e-02, 1.076923076923e-02, 8.181818181818e-03
4901, -1.542857142857e-02, 1.076923076923e-02, 8.181818181818e-03
4902, -1.428571428571e-02, 1.076923076923e-02, 8.181818181818e-03
4903, -1.314285714286e-02, 1.076923076923e-02, 8.181818181818e-03
4904, -1.200000000000e-02, 1.076923076923e-02, 8.181818181818e-03
4905, -1.085714285714e-02, 1.076923076923e-02, 8.181818181818e-03
4906, -9.714285714286e-03, 1.076923076923e-02, 8.181818181818e-03
4907, -8.571428571429e-03, 1.076923076923e-02, 8.181818181818e-03
4908, -7.428571428571e-03, 1.076923076923e-02, 8.181818181818e-03
4909, -6.285714285714e-03, 1.076923076923e-02, 8.181818181818e-03
4910, -5.142857142857e-03, 1.076923076923e-02, 8.181818181818e-03
4911, -4.000000000000e-03, 1.076923076923e-02, 8.181818181818e-03
4912, -2.857142857143e-03, 1.076923076923e-02, 8.181818181818e-03
4913, -1.714285714286e-03, 1.076923076923e-02, 8.181818181818e-03
4914, -5.714285714286e-04, 1.076923076923e-02, 8.181818181818e-03
4915, 5.714285714286e-04, 1.076923076923e-02, 8.181818181818e-03
4916, 1.714285714286e-03, 1.076923076923e-02, 8.181818181818e-03
4917, 2.857142857143e-03, 1.076923076923e-02, 8.181818181818e-03
4918, 4.000000000000e-03, 1.076923076923e-02, 8.181818181818e-03
4919, 5.142857142857e-03, 1.076923076923e-02, 8.181818181818e-03
4920, 6.285714285714e-03, 1.076923076923e-02, 8.181818181818e-03
4921, 7.428571428571e-03, 1.076923076923e-02, 8.181818181818e-03
4922, 8.571428571429e-03, 1.076923076923e-02, 8.181818181818e-03
4923, 9.714285714286e-03, 1.076923076923e-02, 8.181818181818e-03
4924, 1.085714285714e-02, 1.076923076923e-02, 8.181818181818e-03
4925, 1.200000000000e-02, 1.076923076923e-02, 8.181818181818e-03
4926, 1.314285714286e-02, 1.076923076923e-02, 8.181818181818e-03
4927, 1.428571428571e-02, 1.076923076923e-02, 8.181818181818e-03
4928, 1.542857142857e-02, 1.076923076923e-02, 8.181818181818e-03
4929, 1.657142857143e-02, 1.076923076923e-02, 8.181818181818e-03
4930, 1.771428571429e-02, 1.076923076923e-02, 8.181818181818e-03
4931, 1.885714285714e-02, 1.076923076923e-02, 8.181818181818e-03
4932, 2.000000000000e-02, 1.076923076923e-02, 8.181818181818e-03
4933, -2.000000000000e-02, 1.384615384615e-02, 8.181818181818e-03
4934, -1.885714285714e-02, 1.384615384615e-02, 8.181818181818e-03
4935, -1.771428571429e-02, 1.384615384615e-02, 8.181818181818e-03
4936, -1.657142857143e-02, 1.384615384615e-02, 8.181818181818e-03
4937, -1.542857142857e-02, 1.384615384615e-02, 8.181818181818e-03
4938, -1.428571428571e-02, 1.384615384615e-02, 8.181818181818e-03
4939, -1.314285714286e-02, 1.384615384615e-02, 8.181818181818e-03
4940, -1.200000000000e-02, 1.384615384615e-02, 8.181818181818e-03
4941, -1.085714285714e-02, 1.384615384615e-02, 8.181818181818e-03
4942, -9.714285714286e-03, 1.384615384615e-02, 8.181818181818e-03
4943, -8.571428571429e-03, 1.384615384615e-02, 8.181818181818e-03
4944, -7.428571428571e-03, 1.384615384615e-02, 8.181818181818e-03
4945, -6.285714285714e-03, 1.384615384615e-02, 8.181818181818e-03
4946, -5.142857142857e-03, 1.384615384615e-02, 8.181818181818e-03
4947, -4.000000000000e-03, 1.384615384615e-02, 8.181818181818e-03
4948, -2.857142857143e-03, 1.384615384615e-02, 8.181818181818e-03
4949, -1.714285714286e-03, 1.384615384615e-02, 8.181818181818e-03
4950, -5.714285714286e-04, 1.384615384615e-02, 8.181818181818e-03
4951, 5.714285714286e-04, 1.384615384615e-02, 8.181818181818e-03
4952, 1.714285714286e-03, 1.384615384615e-02, 8.181818181818e-03
4953, 2.857142857143e-03, 1.384615384615e-02, 8.181818181818e-03
4954, 4.000000000000e-03, 1.384615384615e-02, 8.181818181818e-03
4955, 5.142857142857e-03, 1.384615384615e-02, 8.181818181818e-03
4956, 6.285714285714e-03, 1.384615384615e-02, 8.181818181818e-03
4957, 7.428571428571e-03, 1.384615384615e-02, 8.181818181818e-03
4958, 8.571428571429e-03, 1.384615384615e-02, 8.181818181818e-03
4959, 9.714285714286e-03, 1.384615384615e-02, 8.181818181818e-03
4960, 1.085714285714e-02, 1.384615384615e-02, 8.181818181818e-03
4961, 1.200000000000e-02, 1.384615384615e-02, 8.181818181818e-03
4962, 1.314285714286e-02, 1.384615384615e-02, 8.181818181818e-03
4963, 1.428571428571e-02, 1.384615384615e-02, 8.181818181818e-03
4964, 1.542857142857e-02, 1.384615384615e-02, 8.181818181818e-03
4965, 1.657142857143e-02, 1.384615384615e-02, 8.181818181818e-03
4966, 1.771428571429e-02, 1.384615384615e-02, 8.181818181818e-03
4967, 1.885714285714e-02, 1.384615384615e-02, 8.181818181818e-03
4968, 2.000000000000e-02, 1.384615384615e-02, 8.181818181818e-03
4969, -2.000000000000e-02, 1.692307692308e-02, 8.181818181818e-03
4970, -1.885714285714e-02, 1.692307692308e-02, 8.181818181818e-03
4971, -1.771428571429e-02, 1.692307692308e-02, 8.181818181818e-03
4972, -1.657142857143e-02, 1.692307692308e-02, 8.181818181818e-03
4973, -1.542857142857e-02, 1.692307692308e-02, 8.181818181818e-03
4974, -1.428571428571e-02, 1.692307692308e-02, 8.181818181818e-03
4975, -1.314285714286e-02, 1.692307692308e-02, 8.181818181818e-03
4976, -1.200000000000e-02, 1.692307692308e-02, 8.181818181818e-03
4977, -1.085714285714e-02, 1.692307692308e-02, 8.181818181818e-03
4978, -9.714285714286e-03, 1.692307692308e-02, 8.181818181818e-03
4979, -8.571428571429e-03, 1.692307692308e-02, 8.181818181818e-03
4980, -7.428571428571e-03, 1.692307692308e-02, 8.181818181818e-03
4981, -6.285714285714e-03, 1.692307692308e-02, 8.181818181818e-03
4982, -5.142857142857e-03, 1.692307692308e-02, 8.181818181818e-03
4983, -4.000000000000e-03, 1.692307692308e-02, 8.181818181818e-03
4984, -2.857142857143e-03, 1.692307692308e-02, 8.181818181818e-03
4985, -1.714285714286e-03, 1.692307692308e-02, 8.181818181818e-03
4986, -5.714285714286e-04, 1.692307692308e-02, 8.181818181818e-03
4987, 5.714285714286e-04, 1.692307692308e-02, 8.181818181818e-03
4988, 1.714285714286e-03, 1.692307692308e-02, 8.181818181818e-03
4989, 2.857142857143e-03, 1.692307692308e-02, 8.181818181818e-03
4990, 4.000000000000e-03, 1.692307692308e-02, 8.181818181818e-03
4991, 5.142857142857e-03, 1.692307692308e-02, 8.181818181818e-03
4992, 6.285714285714e-03, 1.692307692308e-02, 8.181818181818e-03
4993, 7.428571428571e-03, 1.692307692308e-02, 8.181818181818e-03
4994, 8.571428571429e-03, 1.692307692308e-02, 8.181818181818e-03
4995, 9.714285714286e-03, 1.692307692308e-02, 8.181818181818e-03
4996, 1.085714285714e-02, 1.692307692308e-02, 8.181818181818e-03
4997, 1.200000000000e-02, 1.692307692308e-02, 8.181818181818e-03
4998, 1.314285714286e-02, 1.692307692308e-02, 8.181818181818e-03
4999, 1.428571428571e-02, 1.692307692308e-02, 8.181818181818e-03
5000, 1.542857142857e-02, 1.692307692308e-02, 8.181818181818e-03
5001, 1.657142857143e-02, 1.692307692308e-02, 8.181818181818e-03
5002, 1.771428571429e-02, 1.692307692308e-02, 8.181818181818e-03
5003, 1.885714285714e-02, 1.692307692308e-02, 8.181818181818e-03
5004, 2.000000000000e-02, 1.692307692308e-02, 8.181818181818e-03
5005, -2.000000000000e-02, 2.000000000000e-02, 8.181818181818e-03
5006, -1.885714285714e-02, 2.000000000000e-02, 8.181818181818e-03
5007, -1.771428571429e-02, 2.000000000000e-02, 8.181818181818e-03
5008, -1.657142857143e-02, 2.000000000000e-02, 8.181818181818e-03
5009, -1.542857142857e-02, 2.000000000000e-02, 8.181818181818e-03
5010, -1.428571428571e-02, 2.000000000000e-02, 8.181818181818e-03
5011, -1.314285714286e-02, 2.000000000000e-02, 8.181818181818e-03
5012, -1.200000000000e-02, 2.000000000000e-02, 8.181818181818e-03
5013, -1.085714285714e-02, 2.000000000000e-02, 8.181818181818e-03
5014, -9.714285714286e-03, 2.000000000000e-02, 8.181818181818e-03
5015, -8.571428571429e-03, 2.000000000000e-02, 8.181818181818e-03
5016, -7.428571428571e-03, 2.000000000000e-02, 8.181818181818e-03
5017, -6.285714285714e-03, 2.000000000000e-02, 8.181818181818e-03
5018, -5.142857142857e-03, 2.000000000000e-02, 8.181818181818e-03
5019, -4.000000000000e-03, 2.000000000000e-02, 8.181818181818e-03
5020, -2.857142857143e-03, 2.000000000000e-02, 8.181818181818e-03
5021, -1.714285714286e-03, 2.000000000000e-02, 8.181818181818e-03
5022, -5.714285714286e-04, 2.000000000000e-02, 8.181818181818e-03
5023, 5.714285714286e-04, 2.000000000000e-02, 8.181818181818e-03
5024, 1.714285714286e-03, 2.000000000000e-02, 8.181818181818e-03
5025, 2.857142857143e-03, 2.000000000000e-02, 8.181818181818e-03
5026, 4.000000000000e-03, 2.000000000000e-02, 8.181818181818e-03
5027, 5.142857142857e-03, 2.000000000000e-02, 8.181818181818e-03
5028, 6.285714285714e-03, 2.000000000000e-02, 8.181818181818e-03
5029, 7.428571428571e-03, 2.000000000000e-02, 8.181818181818e-03
5030, 8.571428571429e-03, 2.000000000000e-02, 8.181818181818e-03
5031, 9.714285714286e-03, 2.000000000000e-02, 8.181818181818e-03
5032, 1.085714285714e-02, 2.000000000000e-02, 8.181818181818e-03
5033, 1.200000000000e-02, 2.000000000000e-02, 8.181818181818e-03
5034, 1.314285714286e-02, 2.000000000000e-02, 8.181818181818e-03
5035, 1.428571428571e-02, 2.000000000000e-02, 8.181818181818e-03
5036, 1.542857142857e-02, 2.000000000000e-02, 8.181818181818e-03
5037, 1.657142857143e-02, 2.000000000000e-02, 8.181818181818e-03
5038, 1.771428571429e-02, 2.000000000000e-02, 8.181818181818e-03
5039, 1.885714285714e-02, 2.000000000000e-02, 8.181818181818e-03
5040, 2.000000000000e-02, 2.000000000000e-02, 8.181818181818e-03
5041, -2.000000000000e-02, -2.000000000000e-02, 9.090909090909e-03
5042, -1.885714285714e-02, -2.000000000000e-02, 9.090909090909e-03
5043, -1.771428571429e-02, -2.000000000000e-02, 9.090909090909e-03
5044, -1.657142857143e-02, -2.000000000000e-02, 9.090909090909e-03
5045, -1.542857142857e-02, -2.000000000000e-02, 9.090909090909e-03
5046, -1.428571428571e-02, -2.000000000000e-02, 9.090909090909e-03
5047, -1.314285714286e-02, -2.000000000000e-02, 9.090909090909e-03
5048, -1.200000000000e-02, -2.000000000000e-02, 9.090909090909e-03
5049, -1.085714285714e-02, -2.000000000000e-02, 9.090909090909e-03
5050, -9.714285714286e-03, -2.000000000000e-02, 9.090909090909e-03
5051, -8.571428571429e-03, -2.000000000000e-02, 9.090909090909e-03
5052, -7.428571428571e-03, -2.000000000000e-02, 9.090909090909e-03
5053, -6.285714285714e-03, -2.000000000000e-02, 9.090909090909e-03
5054, -5.142857142857e-03, -2.000000000000e-02, 9.090909090909e-03
5055, -4.000000000000e-03, -2.000000000000e-02, 9.090909090909e-03
5056, -2.857142857143e-03, -2.000000000000e-02, 9.090909090909e-03
5057, -1.714285714286e-03, -2.000000000000e-02, 9.090909090909e-03
5058, -5.714285714286e-04, -2.000000000000e-02, 9.090909090909e-03
5059, 5.714285714286e-04, -2.000000000000e-02, 9.090909090909e-03
5060, 1.714285714286e-03, -2.000000000000e-02, 9.090909090909e-03
5061, 2.857142857143e-03, -2.000000000000e-02, 9.090909090909e-03
5062, 4.000000000000e-03, -2.000000000000e-02, 9.090909090909e-03
5063, 5.142857142857e-03, -2.000000000000e-02, 9.090909090909e-03
5064, 6.285714285714e-03, -2.000000000000e-02, 9.090909090909e-03
5065, 7.428571428571e-03, -2.000000000000e-02, 9.090909090909e-03
5066, 8.571428571429e-03, -2.000000000000e-02, 9.090909090909e-03
5067, 9.714285714286e-03, -2.000000000000e-02, 9.090909090909e-03
5068, 1.085714285714e-02, -2.000000000000e-02, 9.090909090909e-03
5069, 1.200000000000e-02, -2.000000000000e-02, 9.090909090909e-03
5070, 1.314285714286e-02, -2.000000000000e-02, 9.090909090909e-03
5071, 1.428571428571e-02, -2.000000000000e-02, 9.090909090909e-03
5072, 1.542857142857e-02, -2.000000000000e-02, 9.090909090909e-03
5073, 1.657142857143e-02, -2.000000000000e-02, 9.090909090909e-03
5074, 1.771428571429e-02, -2.000000000000e-02, 9.090909090909e-03
5075, 1.885714285714e-02, -2.000000000000e-02, 9.090909090909e-03
5076, 2.000000000000e-02, -2.000000000000e-02, 9.090909090909e-03
5077, -2.000000000000e-02, -1.692307692308e-02, 9.090909090909e-03
5078, -1.885714285714e-02, -1.692307692308e-02, 9.090909090909e-03
5079, -1.771428571429e-02, -1.692307692308e-02, 9.090909090909e-03
5080, -1.657142857143e-02, -1.692307692308e-02, 9.090909090909e-03
5081, -1.542857142857e-02, -1.692307692308e-02, 9.090909090909e-03
5082, -1.428571428571e-02, -1.692307692308e-02, 9.090909090909e-03
5083, -1.314285714286e-02, -1.692307692308e-02, 9.090909090909e-03
5084, -1.200000000000e-02, -1.692307692308e-02, 9.090909090909e-03
5085, -1.085714285714e-02, -1.692307692308e-02, 9.090909090909e-03
5086, -9.714285714286e-03, -1.692307692308e-02, 9.090909090909e-03
5087, -8.571428571429e-03, -1.692307692308e-02, 9.090909090909e-03
5088, -7.428571428571e-03, -1.692307692308e-02, 9.090909090909e-03
5089, -6.285714285714e-03, -1.692307692308e-02, 9.090909090909e-03
5090, -5.142857142857e-03, -1.692307692308e-02, 9.090909090909e-03
5091, -4.000000000000e-03, -1.692307692308e-02, 9.090909090909e-03
5092, -2.857142857143e-03, -1.692307692308e-02, 9.090909090909e-03
5093, -1.714285714286e-03, -1.692307692308e-02, 9.090909090909e-03
5094, -5.714285714286e-04, -1.692307692308e-02, 9.090909090909e-03
5095, 5.714285714286e-04, -1.692307692308e-02, 9.090909090909e-03
5096, 1.714285714286e-03, -1.692307692308e-02, 9.090909090909e-03
5097, 2.857142857143e-03, -1.692307692308e-02, 9.090909090909e-03
5098, 4.000000000000e-03, -1.692307692308e-02, 9.090909090909e-03
5099, 5.142857142857e-03, -1.692307692308e-02, 9.090909090909e-03
5100, 6.285714285714e-03, -1.692307692308e-02, 9.090909090909e-03
5101, 7.428571428571e-03, -1.692307692308e-02, 9.090909090909e-03
5102, 8.571428571429e-03, -1.692307692308e-02, 9.090909090909e-03
5103, 9.714285714286e-03, -1.692307692308e-02, 9.090909090909e-03
5104, 1.085714285714e-02, -1.692307692308e-02, 9.090909090909e-03
5105, 1.200000000000e-02, -1.692307692308e-02, 9.090909090909e-03
5106, 1.314285714286e-02, -1.692307692308e-02, 9.090909090909e-03
5107, 1.428571428571e-02, -1.692307692308e-02, 9.090909090909e-03
5108, 1.542857142857e-02, -1.692307692308e-02, 9.090909090909e-03
5109, 1.657142857143e-02, -1.692307692308e-02, 9.090909090909e-03
5110, 1.771428571429e-02, -1.692307692308e-02, 9.090909090909e-03
5111, 1.885714285714e-02, -1.692307692308e-02, 9.090909090909e-03
5112, 2.000000000000e-02, -1.692307692308e-02, 9.090909090909e-03
5113, -2.000000000000e-02, -1.384615384615e-02, 9.090909090909e-03
5114, -1.885714285714e-02, -1.384615384615e-02, 9.090909090909e-03
5115, -1.771428571429e-02, -1.384615384615e-02, 9.090909090909e-03
5116, -1.657142857143e-02, -1.384615384615e-02, 9.090909090909e-03
5117, -1.542857142857e-02, -1.384615384615e-02, 9.090909090909e-03
5118, -1.428571428571e-02, -1.384615384615e-02, 9.090909090909e-03
5119, -1.314285714286e-02, -1.384615384615e-02, 9.090909090909e-03
5120, -1.200000000000e-02, -1.384615384615e-02, 9.090909090909e-03
5121, -1.085714285714e-02, -1.384615384615e-02, 9.090909090909e-03
5122, -9.714285714286e-03, -1.384615384615e-02, 9.090909090909e-03
5123, -8.571428571429e-03, -1.384615384615e-02, 9.090909090909e-03
5124, -7.428571428571e-03, -1.384615384615e-02, 9.090909090909e-03
5125, -6.285714285714e-03, -1.384615384615e-02, 9.090909090909e-03
5126, -5.142857142857e-03, -1.384615384615e-02, 9.090909090909e-03
5127, -4.000000000000e-03, -1.384615384615e-02, 9.090909090909e-03
5128, -2.857142857143e-03, -1.384615384615e-02, 9.090909090909e-03
5129, -1.714285714286e-03, -1.384615384615e-02, 9.090909090909e-03
5130, -5.714285714286e-04, -1.384615384615e-02, 9.090909090909e-03
5131, 5.714285714286e-04, -1.384615384615e-02, 9.090909090909e-03
5132, 1.714285714286e-03, -1.384615384615e-02, 9.090909090909e-03
5133, 2.857142857143e-03, -1.384615384615e-02, 9.090909090909e-03
5134, 4.000000000000e-03, -1.384615384615e-02, 9.090909090909e-03
5135, 5.142857142857e-03, -1.384615384615e-02, 9.090909090909e-03
5136, 6.285714285714e-03, -1.384615384615e-02, 9.090909090909e-03
5137, 7.428571428571e-03, -1.384615384615e-02, 9.090909090909e-03
5138, 8.571428571429e-03, -1.384615384615e-02, 9.090909090909e-03
5139, 9.714285714286e-03, -1.384615384615e-02, 9.090909090909e-03
5140, 1.085714285714e-02, -1.384615384615e-02, 9.090909090909e-03
5141, 1.200000000000e-02, -1.384615384615e-02, 9.090909090909e-03
5142, 1.314285714286e-02, -1.384615384615e-02, 9.090909090909e-03
5143, 1.428571428571e-02, -1.384615384615e-02, 9.090909090909e-03
5144, 1.542857142857e-02, -1.384615384615e-02, 9.090909090909e-03
5145, 1.657142857143e-02, -1.384615384615e-02, 9.090909090909e-03
5146, 1.771428571429e-02, -1.384615384615e-02, 9.090909090909e-03
5147, 1.885714285714e-02, -1.384615384615e-02, 9.090909090909e-03
5148, 2.000000000000e-02, -1.384615384615e-02, 9.090909090909e-03
5149, -2.000000000000e-02, -1.076923076923e-02, 9.090909090909e-03
5150, -1.885714285714e-02, -1.076923076923e-02, 9.090909090909e-03
5151, -1.771428571429e-02, -1.076923076923e-02, 9.090909090909e-03
5152, -1.657142857143e-02, -1.076923076923e-02, 9.090909090909e-03
5153, -1.542857142857e-02, -1.076923076923e-02, 9.090909090909e-03
5154, -1.428571428571e-02, -1.076923076923e-02, 9.090909090909e-03
5155, -1.314285714286e-02, -1.076923076923e-02, 9.090909090909e-03
5156, -1.200000000000e-02, -1.076923076923e-02, 9.090909090909e-03
5157, -1.085714285714e-02, -1.076923076923e-02, 9.090909090909e-03
5158, -9.714285714286e-03, -1.076923076923e-02, 9.090909090909e-03
5159, -8.571428571429e-03, -1.076923076923e-02, 9.090909090909e-03
5160, -7.428571428571e-03, -1.076923076923e-02, 9.090909090909e-03
5161, -6.285714285714e-03, -1.076923076923e-02, 9.090909090909e-03
5162, -5.142857142857e-03, -1.076923076923e-02, 9.090909090909e-03
5163, -4.000000000000e-03, -1.076923076923e-02, 9.090909090909e-03
5164, -2.857142857143e-03, -1.076923076923e-02, 9.090909090909e-03
5165, -1.714285714286e-03, -1.076923076923e-02, 9.090909090909e-03
5166, -5.714285714286e-04, -1.076923076923e-02, 9.090909090909e-03
5167, 5.714285714286e-04, -1.076923076923e-02, 9.090909090909e-03
5168, 1.714285714286e-03, -1.076923076923e-02, 9.090909090909e-03
5169, 2.857142857143e-03, -1.076923076923e-02, 9.090909090909e-03
5170, 4.000000000000e-03, -1.076923076923e-02, 9.090909090909e-03
5171, 5.142857142857e-03, -1.076923076923e-02, 9.090909090909e-03
5172, 6.285714285714e-03, -1.076923076923e-02, 9.090909090909e-03
5173, 7.428571428571e-03, -1.076923076923e-02, 9.090909090909e-03
5174, 8.571428571429e-03, -1.076923076923e-02, 9.090909090909e-03
5175, 9.714285714286e-03, -1.076923076923e-02, 9.090909090909e-03
5176, 1.085714285714e-02, -1.076923076923e-02, 9.090909090909e-03
5177, 1.200000000000e-02, -1.076923076923e-02, 9.090909090909e-03
5178, 1.314285714286e-02, -1.076923076923e-02, 9.090909090909e-03
5179, 1.428571428571e-02, -1.076923076923e-02, 9.090909090909e-03
5180, 1.542857142857e-02, -1.076923076923e-02, 9.090909090909e-03
5181, 1.657142857143e-02, -1.076923076923e-02, 9.090909090909e-03
5182, 1.771428571429e-02, -1.076923076923e-02, 9.090909090909e-03
5183, 1.885714285714e-02, -1.076923076923e-02, 9.090909090909e-03
5184, 2.000000000000e-02, -1.076923076923e-02, 9.090909090909e-03
5185, -2.000000000000e-02, -7.692307692308e-03, 9.090909090909e-03
5186, -1.885714285714e-02, -7.692307692308e-03, 9.090909090909e-03
5187, -1.771428571429e-02, -7.692307692308e-03, 9.090909090909e-03
5188, -1.657142857143e-02, -7.692307692308e-03, 9.090909090909e-03
5189, -1.542857142857e-02, -7.692307692308e-03, 9.090909090909e-03
5190, -1.428571428571e-02, -7.692307692308e-03, 9.090909090909e-03
5191, -1.314285714286e-02, -7.692307692308e-03, 9.090909090909e-03
5192, -1.200000000000e-02, -7.692307692308e-03, 9.090909090909e-03
5193, -1.085714285714e-02, -7.692307692308e-03, 9.090909090909e-03
5194, -9.714285714286e-03, -7.692307692308e-03, 9.090909090909e-03
5195, -8.571428571429e-03, -7.692307692308e-03, 9.090909090909e-03
5196, -7.428571428571e-03, -7.692307692308e-03, 9.090909090909e-03
5197, -6.285714285714e-03, -7.692307692308e-03, 9.090909090909e-03
5198, -5.142857142857e-03, -7.692307692308e-03, 9.090909090909e-03
5199, -4.000000000000e-03, -7.692307692308e-03, 9.090909090909e-03
5200, -2.857142857143e-03, -7.692307692308e-03, 9.090909090909e-03
5201, -1.714285714286e-03, -7.692307692308e-03, 9.090909090909e-03
5202, -5.714285714286e-04, -7.692307692308e-03, 9.090909090909e-03
5203, 5.714285714286e-04, -7.692307692308e-03, 9.090909090909e-03
5204, 1.714285714286e-03, -7.692307692308e-03, 9.090909090909e-03
5205, 2.857142857143e-03, -7.692307692308e-03, 9.090909090909e-03
5206, 4.000000000000e-03, -7.692307692308e-03, 9.090909090909e-03
5207, 5.142857142857e-03, -7.692307692308e-03, 9.090909090909e-03
5208, 6.285714285714e-03, -7.692307692308e-03, 9.090909090909e-03
5209, 7.428571428571e-03, -7.692307692308e-03, 9.090909090909e-03
5210, 8.571428571429e-03, -7.692307692308e-03, 9.090909090909e-03
5211, 9.714285714286e-03, -7.692307692308e-03, 9.090909090909e-03
5212, 1.085714285714e-02, -7.692307692308e-03, 9.090909090909e-03
5213, 1.200000000000e-02, -7.692307692308e-03, 9.090909090909e-03
5214, 1.314285714286e-02, -7.692307692308e-03, 9.090909090909e-03
5215, 1.428571428571e-02, -7.692307692308e-03, 9.090909090909e-03
5216, 1.542857142857e-02, -7.692307692308e-03, 9.090909090909e-03
5217, 1.657142857143e-02, -7.692307692308e-03, 9.090909090909e-03
5218, 1.771428571429e-02, -7.692307692308e-03, 9.090909090909e-03
5219, 1.885714285714e-02, -7.692307692308e-03, 9.090909090909e-03
5220, 2.000000000000e-02, -7.692307692308e-03, 9.090909090909e-03
5221, -2.000000000000e-02, -4.615384615385e-03, 9.090909090909e-03
5222, -1.885714285714e-02, -4.615384615385e-03, 9.090909090909e-03
5223, -1.771428571429e-02, -4.615384615385e-03, 9.090909090909e-03
5224, -1.657142857143e-02, -4.615384615385e-03, 9.090909090909e-03
5225, -1.542857142857e-02, -4.615384615385e-03, 9.090909090909e-03
5226, -1.428571428571e-02, -4.615384615385e-03, 9.090909090909e-03
5227, -1.314285714286e-02, -4.615384615385e-03, 9.090909090909e-03
5228, -1.200000000000e-02, -4.615384615385e-03, 9.090909090909e-03
5229, -1.085714285714e-02, -4.615384615385e-03, 9.090909090909e-03
5230, -9.714285714286e-03, -4.615384615385e-03, 9.090909090909e-03
5231, -8.571428571429e-03, -4.615384615385e-03, 9.090909090909e-03
5232, -7.428571428571e-03, -4.615384615385e-03, 9.090909090909e-03
5233, -6.285714285714e-03, -4.615384615385e-03, 9.090909090909e-03
5234, -5.142857142857e-03, -4.615384615385e-03, 9.090909090909e-03
5235, -4.000000000000e-03, -4.615384615385e-03, 9.090909090909e-03
5236, -2.857142857143e-03, -4.615384615385e-03, 9.090909090909e-03
5237, -1.714285714286e-03, -4.615384615385e-03, 9.090909090909e-03
5238, -5.714285714286e-04, -4.615384615385e-03, 9.090909090909e-03
5239, 5.714285714286e-04, -4.615384615385e-03, 9.090909090909e-03
5240, 1.714285714286e-03, -4.615384615385e-03, 9.090909090909e-03
5241, 2.857142857143e-03, -4.615384615385e-03, 9.090909090909e-03
5242, 4.000000000000e-03, -4.615384615385e-03, 9.090909090909e-03
5243, 5.142857142857e-03, -4.615384615385e-03, 9.090909090909e-03
5244, 6.285714285714e-03, -4.615384615385e-03, 9.090909090909e-03
5245, 7.428571428571e-03, -4.615384615385e-03, 9.090909090909e-03
5246, 8.571428571429e-03, -4.615384615385e-03, 9.090909090909e-03
5247, 9.714285714286e-03, -4.615384615385e-03, 9.090909090909e-03
5248, 1.085714285714e-02, -4.615384615385e-03, 9.090909090909e-03
5249, 1.200000000000e-02, -4.615384615385e-03, 9.090909090909e-03
5250, 1.314285714286e-02, -4.615384615385e-03, 9.090909090909e-03
5251, 1.428571428571e-02, -4.615384615385e-03, 9.090909090909e-03
5252, 1.542857142857e-02, -4.615384615385e-03, 9.090909090909e-03
5253, 1.657142857143e-02, -4.615384615385e-03, 9.090909090909e-03
5254, 1.771428571429e-02, -4.615384615385e-03, 9.090909090909e-03
5255, 1.885714285714e-02, -4.615384615385e-03, 9.090909090909e-03
5256, 2.000000000000e-02, -4.615384615385e-03, 9.090909090909e-03
5257, -2.000000000000e-02, -1.538461538462e-03, 9.090909090909e-03
5258, -1.885714285714e-02, -1.538461538462e-03, 9.090909090909e-03
5259, -1.771428571429e-02, -1.538461538462e-03, 9.090909090909e-03
5260, -1.657142857143e-02, -1.538461538462e-03, 9.090909090909e-03
5261, -1.542857142857e-02, -1.538461538462e-03, 9.090909090909e-03
5262, -1.428571428571e-02, -1.538461538462e-03, 9.090909090909e-03
5263, -1.314285714286e-02, -1.538461538462e-03, 9.090909090909e-03
5264, -1.200000000000e-02, -1.538461538462e-03, 9.090909090909e-03
5265, -1.085714285714e-02, -1.538461538462e-03, 9.090909090909e-03
5266, -9.714285714286e-03, -1.538461538462e-03, 9.090909090909e-03
5267, -8.571428571429e-03, -1.538461538462e-03, 9.090909090909e-03
5268, -7.428571428571e-03, -1.538461538462e-03, 9.090909090909e-03
5269, -6.285714285714e-03, -1.538461538462e-03, 9.090909090909e-03
5270, -5.142857142857e-03, -1.538461538462e-03, 9.090909090909e-03
5271, -4.000000000000e-03, -1.538461538462e-03, 9.090909090909e-03
5272, -2.857142857143e-03, -1.538461538462e-03, 9.090909090909e-03
5273, -1.714285714286e-03, -1.538461538462e-03, 9.090909090909e-03
5274, -5.714285714286e-04, -1.538461538462e-03, 9.090909090909e-03
5275, 5.714285714286e-04, -1.538461538462e-03, 9.090909090909e-03
5276, 1.714285714286e-03, -1.538461538462e-03, 9.090909090909e-03
5277, 2.857142857143e-03, -1.538461538462e-03, 9.090909090909e-03
5278, 4.000000000000e-03, -1.538461538462e-03, 9.090909090909e-03
5279, 5.142857142857e-03, -1.538461538462e-03, 9.090909090909e-03
5280, 6.285714285714e-03, -1.538461538462e-03, 9.090909090909e-03
5281, 7.428571428571e-03, -1.538461538462e-03, 9.090909090909e-03
5282, 8.571428571429e-03, -1.538461538462e-03, 9.090909090909e-03
5283, 9.714285714286e-03, -1.538461538462e-03, 9.090909090909e-03
5284, 1.085714285714e-02, -1.538461538462e-03, 9.090909090909e-03
5285, 1.200000000000e-02, -1.538461538462e-03, 9.090909090909e-03
5286, 1.314285714286e-02, -1.538461538462e-03, 9.090909090909e-03
5287, 1.428571428571e-02, -1.538461538462e-03, 9.090909090909e-03
5288, 1.542857142857e-02, -1.538461538462e-03, 9.090909090909e-03
5289, 1.657142857143e-02, -1.538461538462e-03, 9.090909090909e-03
5290, 1.771428571429e-02, -1.538461538462e-03, 9.090909090909e-03
5291, 1.885714285714e-02, -1.538461538462e-03, 9.090909090909e-03
5292, 2.000000000000e-02, -1.538461538462e-03, 9.090909090909e-03
5293, -2.000000000000e-02, 1.538461538462e-03, 9.090909090909e-03
5294, -1.885714285714e-02, 1.538461538462e-03, 9.090909090909e-03
5295, -1.771428571429e-02, 1.538461538462e-03, 9.090909090909e-03
5296, -1.657142857143e-02, 1.538461538462e-03, 9.090909090909e-03
5297, -1.542857142857e-02, 1.538461538462e-03, 9.090909090909e-03
5298, -1.428571428571e-02, 1.538461538462e-03, 9.090909090909e-03
5299, -1.314285714286e-02, 1.538461538462e-03, 9.090909090909e-03
5300, -1.200000000000e-02, 1.538461538462e-03, 9.090909090909e-03
5301, -1.085714285714e-02, 1.538461538462e-03, 9.090909090909e-03
5302, -9.714285714286e-03, 1.538461538462e-03, 9.090909090909e-03
5303, -8.571428571429e-03, 1.538461538462e-03, 9.090909090909e-03
5304, -7.428571428571e-03, 1.538461538462e-03, 9.090909090909e-03
5305, -6.285714285714e-03, 1.538461538462e-03, 9.090909090909e-03
5306, -5.142857142857e-03, 1.538461538462e-03, 9.090909090909e-03
5307, -4.000000000000e-03, 1.538461538462e-03, 9.090909090909e-03
5308, -2.857142857143e-03, 1.538461538462e-03, 9.090909090909e-03
5309, -1.714285714286e-03, 1.538461538462e-03, 9.090909090909e-03
5310, -5.714285714286e-04, 1.538461538462e-03, 9.090909090909e-03
5311, 5.714285714286e-04, 1.538461538462e-03, 9.090909090909e-03
5312, 1.714285714286e-03, 1.538461538462e-03, 9.090909090909e-03
5313, 2.857142857143e-03, 1.538461538462e-03, 9.090909090909e-03
5314, 4.000000000000e-03, 1.538461538462e-03, 9.090909090909e-03
5315, 5.142857142857e-03, 1.538461538462e-03, 9.090909090909e-03
5316, 6.285714285714e-03, 1.538461538462e-03, 9.090909090909e-03
5317, 7.428571428571e-03, 1.538461538462e-03, 9.090909090909e-03
5318, 8.571428571429e-03, 1.538461538462e-03, 9.090909090909e-03
5319, 9.714285714286e-03, 1.538461538462e-03, 9.090909090909e-03
5320, 1.085714285714e-02, 1.538461538462e-03, 9.090909090909e-03
5321, 1.200000000000e-02, 1.538461538462e-03, 9.090909090909e-03
5322, 1.314285714286e-02, 1.538461538462e-03, 9.090909090909e-03
5323, 1.428571428571e-02, 1.538461538462e-03, 9.090909090909e-03
5324, 1.542857142857e-02, 1.538461538462e-03, 9.090909090909e-03
5325, 1.657142857143e-02, 1.538461538462e-03, 9.090909090909e-03
5326, 1.771428571429e-02, 1.538461538462e-03, 9.090909090909e-03
5327, 1.885714285714e-02, 1.538461538462e-03, 9.090909090909e-03
5328, 2.000000000000e-02, 1.538461538462e-03, 9.090909090909e-03
5329, -2.000000000000e-02, 4.615384615385e-03, 9.090909090909e-03
5330, -1.885714285714e-02, 4.615384615385e-03, 9.090909090909e-03
5331, -1.771428571429e-02, 4.615384615385e-03, 9.090909090909e-03
5332, -1.657142857143e-02, 4.615384615385e-03, 9.090909090909e-03
5333, -1.542857142857e-02, 4.615384615385e-03, 9.090909090909e-03
5334, -1.428571428571e-02, 4.615384615385e-03, 9.090909090909e-03
5335, -1.314285714286e-02, 4.615384615385e-03, 9.090909090909e-03
5336, -1.200000000000e-02, 4.615384615385e-03, 9.090909090909e-03
5337, -1.085714285714e-02, 4.615384615385e-03, 9.090909090909e-03
5338, -9.714285714286e-03, 4.615384615385e-03, 9.090909090909e-03
5339, -8.571428571429e-03, 4.615384615385e-03, 9.090909090909e-03
5340, -7.428571428571e-03, 4.615384615385e-03, 9.090909090909e-03
5341, -6.285714285714e-03, 4.615384615385e-03, 9.090909090909e-03
5342, -5.142857142857e-03, 4.615384615385e-03, 9.090909090909e-03
5343, -4.000000000000e-03, 4.615384615385e-03, 9.090909090909e-03
5344, -2.857142857143e-03, 4.615384615385e-03, 9.090909090909e-03
5345, -1.714285714286e-03, 4.615384615385e-03, 9.090909090909e-03
5346, -5.714285714286e-04, 4.615384615385e-03, 9.090909090909e-03
5347, 5.714285714286e-04, 4.615384615385e-03, 9.090909090909e-03
5348, 1.714285714286e-03, 4.615384615385e-03, 9.090909090909e-03
5349, 2.857142857143e-03, 4.615384615385e-03, 9.090909090909e-03
5350, 4.000000000000e-03, 4.615384615385e-03, 9.090909090909e-03
5351, 5.142857142857e-03, 4.615384615385e-03, 9.090909090909e-03
5352, 6.285714285714e-03, 4.615384615385e-03, 9.090909090909e-03
5353, 7.428571428571e-03, 4.615384615385e-03, 9.090909090909e-03
5354, 8.571428571429e-03, 4.615384615385e-03, 9.090909090909e-03
5355, 9.714285714286e-03, 4.615384615385e-03, 9.090909090909e-03
5356, 1.085714285714e-02, 4.615384615385e-03, 9.090909090909e-03
5357, 1.200000000000e-02, 4.615384615385e-03, 9.090909090909e-03
5358, 1.314285714286e-02, 4.615384615385e-03, 9.090909090909e-03
5359, 1.428571428571e-02, 4.615384615385e-03, 9.090909090909e-03
5360, 1.542857142857e-02, 4.615384615385e-03, 9.090909090909e-03
5361, 1.657142857143e-02, 4.615384615385e-03, 9.090909090909e-03
5362, 1.771428571429e-02, 4.615384615385e-03, 9.090909090909e-03
5363, 1.885714285714e-02, 4.615384615385e-03, 9.090909090909e-03
5364, 2.000000000000e-02, 4.615384615385e-03, 9.090909090909e-03
5365, -2.000000000000e-02, 7.692307692308e-03, 9.090909090909e-03
5366, -1.885714285714e-02, 7.692307692308e-03, 9.090909090909e-03
5367, -1.771428571429e-02, 7.692307692308e-03, 9.090909090909e-03
5368, -1.657142857143e-02, 7.692307692308e-03, 9.090909090909e-03
5369, -1.542857142857e-02, 7.692307692308e-03, 9.090909090909e-03
5370, -1.428571428571e-02, 7.692307692308e-03, 9.090909090909e-03
5371, -1.314285714286e-02, 7.692307692308e-03, 9.090909090909e-03
5372, -1.200000000000e-02, 7.692307692308e-03, 9.090909090909e-03
5373, -1.085714285714e-02, 7.692307692308e-03, 9.090909090909e-03
5374, -9.714285714286e-03, 7.692307692308e-03, 9.090909090909e-03
5375, -8.571428571429e-03, 7.692307692308e-03, 9.090909090909e-03
5376, -7.428571428571e-03, 7.692307692308e-03, 9.090909090909e-03
5377, -6.285714285714e-03, 7.692307692308e-03, 9.090909090909e-03
5378, -5.142857142857e-03, 7.692307692308e-03, 9.090909090909e-03
5379, -4.000000000000e-03, 7.692307692308e-03, 9.090909090909e-03
5380, -2.857142857143e-03, 7.692307692308e-03, 9.090909090909e-03
5381, -1.714285714286e-03, 7.692307692308e-03, 9.090909090909e-03
5382, -5.714285714286e-04, 7.692307692308e-03, 9.090909090909e-03
5383, 5.714285714286e-04, 7.692307692308e-03, 9.090909090909e-03
5384, 1.714285714286e-03, 7.692307692308e-03, 9.090909090909e-03
5385, 2.857142857143e-03, 7.692307692308e-03, 9.090909090909e-03
5386, 4.000000000000e-03, 7.692307692308e-03, 9.090909090909e-03
5387, 5.142857142857e-03, 7.692307692308e-03, 9.090909090909e-03
5388, 6.285714285714e-03, 7.692307692308e-03, 9.090909090909e-03
5389, 7.428571428571e-03, 7.692307692308e-03, 9.090909090909e-03
5390, 8.571428571429e-03, 7.692307692308e-03, 9.090909090909e-03
5391, 9.714285714286e-03, 7.692307692308e-03, 9.090909090909e-03
5392, 1.085714285714e-02, 7.692307692308e-03, 9.090909090909e-03
5393, 1.200000000000e-02, 7.692307692308e-03, 9.090909090909e-03
5394, 1.314285714286e-02, 7.692307692308e-03, 9.090909090909e-03
5395, 1.428571428571e-02, 7.692307692308e-03, 9.090909090909e-03
5396, 1.542857142857e-02, 7.692307692308e-03, 9.090909090909e-03
5397, 1.657142857143e-02, 7.692307692308e-03, 9.090909090909e-03
5398, 1.771428571429e-02, 7.692307692308e-03, 9.090909090909e-03
5399, 1.885714285714e-02, 7.692307692308e-03, 9.090909090909e-03
5400, 2.000000000000e-02, 7.692307692308e-03, 9.090909090909e-03
5401, -2.000000000000e-02, 1.076923076923e-02, 9.090909090909e-03
5402, -1.885714285714e-02, 1.076923076923e-02, 9.090909090909e-03
5403, -1.771428571429e-02, 1.076923076923e-02, 9.090909090909e-03
5404, -1.657142857143e-02, 1.076923076923e-02, 9.090909090909e-03
5405, -1.542857142857e-02, 1.076923076923e-02, 9.090909090909e-03
5406, -1.428571428571e-02, 1.076923076923e-02, 9.090909090909e-03
5407, -1.314285714286e-02, 1.076923076923e-02, 9.090909090909e-03
5408, -1.200000000000e-02, 1.076923076923e-02, 9.090909090909e-03
5409, -1.085714285714e-02, 1.076923076923e-02, 9.090909090909e-03
5410, -9.714285714286e-03, 1.076923076923e-02, 9.090909090909e-03
5411, -8.571428571429e-03, 1.076923076923e-02, 9.090909090909e-03
5412, -7.428571428571e-03, 1.076923076923e-02, 9.090909090909e-03
5413, -6.285714285714e-03, 1.076923076923e-02, 9.090909090909e-03
5414, -5.142857142857e-03, 1.076923076923e-02, 9.090909090909e-03
5415, -4.000000000000e-03, 1.076923076923e-02, 9.090909090909e-03
5416, -2.857142857143e-03, 1.076923076923e-02, 9.090909090909e-03
5417, -1.714285714286e-03, 1.076923076923e-02, 9.090909090909e-03
5418, -5.714285714286e-04, 1.076923076923e-02, 9.090909090909e-03
5419, 5.714285714286e-04, 1.076923076923e-02, 9.090909090909e-03
5420, 1.714285714286e-03, 1.076923076923e-02, 9.090909090909e-03
5421, 2.857142857143e-03, 1.076923076923e-02, 9.090909090909e-03
5422, 4.000000000000e-03, 1.076923076923e-02, 9.090909090909e-03
5423, 5.142857142857e-03, 1.076923076923e-02, 9.090909090909e-03
5424, 6.285714285714e-03, 1.076923076923e-02, 9.090909090909e-03
5425, 7.428571428571e-03, 1.076923076923e-02, 9.090909090909e-03
5426, 8.571428571429e-03, 1.076923076923e-02, 9.090909090909e-03
5427, 9.714285714286e-03, 1.076923076923e-02, 9.090909090909e-03
5428, 1.085714285714e-02, 1.076923076923e-02, 9.090909090909e-03
5429, 1.200000000000e-02, 1.076923076923e-02, 9.090909090909e-03
5430, 1.314285714286e-02, 1.076923076923e-02, 9.090909090909e-03
5431, 1.428571428571e-02, 1.076923076923e-02, 9.090909090909e-03
5432, 1.542857142857e-02, 1.076923076923e-02, 9.090909090909e-03
5433, 1.657142857143e-02, 1.076923076923e-02, 9.090909090909e-03
5434, 1.771428571429e-02, 1.076923076923e-02, 9.090909090909e-03
5435, 1.885714285714e-02, 1.076923076923e-02, 9.090909090909e-03
5436, 2.000000000000e-02, 1.076923076923e-02, 9.090909090909e-03
5437, -2.000000000000e-02, 1.384615384615e-02, 9.090909090909e-03
5438, -1.885714285714e-02, 1.384615384615e-02, 9.090909090909e-03
5439, -1.771428571429e-02, 1.384615384615e-02, 9.090909090909e-03
5440, -1.657142857143e-02, 1.384615384615e-02, 9.090909090909e-03
5441, -1.542857142857e-02, 1.384615384615e-02, 9.090909090909e-03
5442, -1.428571428571e-02, 1.384615384615e-02, 9.090909090909e-03
5443, -1.314285714286e-02, 1.384615384615e-02, 9.090909090909e-03
5444, -1.200000000000e-02, 1.384615384615e-02, 9.090909090909e-03
5445, -1.085714285714e-02, 1.384615384615e-02, 9.090909090909e-03
5446, -9.714285714286e-03, 1.384615384615e-02, 9.090909090909e-03
5447, -8.571428571429e-03, 1.384615384615e-02, 9.090909090909e-03
5448, -7.428571428571e-03, 1.384615384615e-02, 9.090909090909e-03
5449, -6.285714285714e-03, 1.384615384615e-02, 9.090909090909e-03
5450, -5.142857142857e-03, 1.384615384615e-02, 9.090909090909e-03
5451, -4.000000000000e-03, 1.384615384615e-02, 9.090909090909e-03
5452, -2.857142857143e-03, 1.384615384615e-02, 9.090909090909e-03
5453, -1.714285714286e-03, 1.384615384615e-02, 9.090909090909e-03
5454, -5.714285714286e-04, 1.384615384615e-02, 9.090909090909e-03
5455, 5.714285714286e-04, 1.384615384615e-02, 9.090909090909e-03
5456, 1.714285714286e-03, 1.384615384615e-02, 9.090909090909e-03
5457, 2.857142857143e-03, 1.384615384615e-02, 9.090909090909e-03
5458, 4.000000000000e-03, 1.384615384615e-02, 9.090909090909e-03
5459, 5.142857142857e-03, 1.384615384615e-02, 9.090909090909e-03
5460, 6.285714285714e-03, 1.384615384615e-02, 9.090909090909e-03
5461, 7.428571428571e-03, 1.384615384615e-02, 9.090909090909e-03
5462, 8.571428571429e-03, 1.384615384615e-02, 9.090909090909e-03
5463, 9.714285714286e-03, 1.384615384615e-02, 9.090909090909e-03
5464, 1.085714285714e-02, 1.384615384615e-02, 9.090909090909e-03
5465, 1.200000000000e-02, 1.384615384615e-02, 9.090909090909e-03
5466, 1.314285714286e-02, 1.384615384615e-02, 9.090909090909e-03
5467, 1.428571428571e-02, 1.384615384615e-02, 9.090909090909e-03
5468, 1.542857142857e-02, 1.384615384615e-02, 9.090909090909e-03
5469, 1.657142857143e-02, 1.384615384615e-02, 9.090909090909e-03
5470, 1.771428571429e-02, 1.384615384615e-02, 9.090909090909e-03
5471, 1.885714285714e-02, 1.384615384615e-02, 9.090909090909e-03
5472, 2.000000000000e-02, 1.384615384615e-02, 9.090909090909e-03
5473, -2.000000000000e-02, 1.692307692308e-02, 9.090909090909e-03
5474, -1.885714285714e-02, 1.692307692308e-02, 9.090909090909e-03
5475, -1.771428571429e-02, 1.692307692308e-02, 9.090909090909e-03
5476, -1.657142857143e-02, 1.692307692308e-02, 9.090909090909e-03
5477, -1.542857142857e-02, 1.692307692308e-02, 9.090909090909e-03
5478, -1.428571428571e-02, 1.692307692308e-02, 9.090909090909e-03
5479, -1.314285714286e-02, 1.692307692308e-02, 9.090909090909e-03
5480, -1.200000000000e-02, 1.692307692308e-02, 9.090909090909e-03
5481, -1.085714285714e-02, 1.692307692308e-02, 9.090909090909e-03
5482, -9.714285714286e-03, 1.692307692308e-02, 9.090909090909e-03
5483, -8.571428571429e-03, 1.692307692308e-02, 9.090909090909e-03
5484, -7.428571428571e-03, 1.692307692308e-02, 9.090909090909e-03
5485, -6.285714285714e-03, 1.692307692308e-02, 9.090909090909e-03
5486, -5.142857142857e-03, 1.692307692308e-02, 9.090909090909e-03
5487, -4.000000000000e-03, 1.692307692308e-02, 9.090909090909e-03
5488, -2.857142857143e-03, 1.692307692308e-02, 9.090909090909e-03
5489, -1.714285714286e-03, 1.692307692308e-02, 9.090909090909e-03
5490, -5.714285714286e-04, 1.692307692308e-02, 9.090909090909e-03
5491, 5.714285714286e-04, 1.692307692308e-02, 9.090909090909e-03
5492, 1.714285714286e-03, 1.692307692308e-02, 9.090909090909e-03
5493, 2.857142857143e-03, 1.692307692308e-02, 9.090909090909e-03
5494, 4.000000000000e-03, 1.692307692308e-02, 9.090909090909e-03
5495, 5.142857142857e-03, 1.692307692308e-02, 9.090909090909e-03
5496, 6.285714285714e-03, 1.692307692308e-02, 9.090909090909e-03
5497, 7.428571428571e-03, 1.692307692308e-02, 9.090909090909e-03
5498, 8.571428571429e-03, 1.692307692308e-02, 9.090909090909e-03
5499, 9.714285714286e-03, 1.692307692308e-02, 9.090909090909e-03
5500, 1.085714285714e-02, 1.692307692308e-02, 9.090909090909e-03
5501, 1.200000000000e-02, 1.692307692308e-02, 9.090909090909e-03
5502, 1.314285714286e-02, 1.692307692308e-02, 9.090909090909e-03
5503, 1.428571428571e-02, 1.692307692308e-02, 9.090909090909e-03
5504, 1.542857142857e-02, 1.692307692308e-02, 9.090909090909e-03
5505, 1.657142857143e-02, 1.692307692308e-02, 9.090909090909e-03
5506, 1.771428571429e-02, 1.692307692308e-02, 9.090909090909e-03
5507, 1.885714285714e-02, 1.692307692308e-02, 9.090909090909e-03
5508, 2.000000000000e-02, 1.692307692308e-02, 9.090909090909e-03
5509, -2.000000000000e-02, 2.000000000000e-02, 9.090909090909e-03
5510, -1.885714285714e-02, 2.000000000000e-02, 9.090909090909e-03
5511, -1.771428571429e-02, 2.000000000000e-02, 9.090909090909e-03
5512, -1.657142857143e-02, 2.000000000000e-02, 9.090909090909e-03
5513, -1.542857142857e-02, 2.000000000000e-02, 9.090909090909e-03
5514, -1.428571428571e-02, 2.000000000000e-02, 9.090909090909e-03
5515, -1.314285714286e-02, 2.000000000000e-02, 9.090909090909e-03
5516, -1.200000000000e-02, 2.000000000000e-02, 9.090909090909e-03
5517, -1.085714285714e-02, 2.000000000000e-02, 9.090909090909e-03
5518, -9.714285714286e-03, 2.000000000000e-02, 9.090909090909e-03
5519, -8.571428571429e-03, 2.000000000000e-02, 9.090909090909e-03
5520, -7.428571428571e-03, 2.000000000000e-02, 9.090909090909e-03
5521, -6.285714285714e-03, 2.000000000000e-02, 9.090909090909e-03
5522, -5.142857142857e-03, 2.000000000000e-02, 9.090909090909e-03
5523, -4.000000000000e-03, 2.000000000000e-02, 9.090909090909e-03
5524, -2.857142857143e-03, 2.000000000000e-02, 9.090909090909e-03
5525, -1.714285714286e-03, 2.000000000000e-02, 9.090909090909e-03
5526, -5.714285714286e-04, 2.000000000000e-02, 9.090909090909e-03
5527, 5.714285714286e-04, 2.000000000000e-02, 9.090909090909e-03
5528, 1.714285714286e-03, 2.000000000000e-02, 9.090909090909e-03
5529, 2.857142857143e-03, 2.000000000000e-02, 9.090909090909e-03
5530, 4.000000000000e-03, 2.000000000000e-02, 9.090909090909e-03
5531, 5.142857142857e-03, 2.000000000000e-02, 9.090909090909e-03
5532, 6.285714285714e-03, 2.000000000000e-02, 9.090909090909e-03
5533, 7.428571428571e-03, 2.000000000000e-02, 9.090909090909e-03
5534, 8.571428571429e-03, 2.000000000000e-02, 9.090909090909e-03
5535, 9.714285714286e-03, 2.000000000000e-02, 9.090909090909e-03
5536, 1.085714285714e-02, 2.000000000000e-02, 9.090909090909e-03
5537, 1.200000000000e-02, 2.000000000000e-02, 9.090909090909e-03
5538, 1.314285714286e-02, 2.000000000000e-02, 9.090909090909e-03
5539, 1.428571428571e-02, 2.000000000000e-02, 9.090909090909e-03
5540, 1.542857142857e-02, 2.000000000000e-02, 9.090909090909e-03
5541, 1.657142857143e-02, 2.000000000000e-02, 9.090909090909e-03
5542, 1.771428571429e-02, 2.000000000000e-02, 9.090909090909e-03
5543, 1.885714285714e-02, 2.000000000000e-02, 9.090909090909e-03
5544, 2.000000000000e-02, 2.000000000000e-02, 9.090909090909e-03
5545, -2.000000000000e-02, -2.000000000000e-02, 1.000000000000e-02
5546, -1.885714285714e-02, -2.000000000000e-02, 1.000000000000e-02
5547, -1.771428571429e-02, -2.000000000000e-02, 1.000000000000e-02
5548, -1.657142857143e-02, -2.000000000000e-02, 1.000000000000e-02
5549, -1.542857142857e-02, -2.000000000000e-02, 1.000000000000e-02
5550, -1.428571428571e-02, -2.000000000000e-02, 1.000000000000e-02
5551, -1.314285714286e-02, -2.000000000000e-02, 1.000000000000e-02
5552, -1.200000000000e-02, -2.000000000000e-02, 1.000000000000e-02
5553, -1.085714285714e-02, -2.000000000000e-02, 1.000000000000e-02
5554, -9.714285714286e-03, -2.000000000000e-02, 1.000000000000e-02
5555, -8.571428571429e-03, -2.000000000000e-02, 1.000000000000e-02
5556, -7.428571428571e-03, -2.000000000000e-02, 1.000000000000e-02
5557, -6.285714285714e-03, -2.000000000000e-02, 1.000000000000e-02
5558, -5.142857142857e-03, -2.000000000000e-02, 1.000000000000e-02
5559, -4.000000000000e-03, -2.000000000000e-02, 1.000000000000e-02
5560, -2.857142857143e-03, -2.000000000000e-02, 1.000000000000e-02
5561, -1.714285714286e-03, -2.000000000000e-02, 1.000000000000e-02
5562, -5.714285714286e-04, -2.000000000000e-02, 1.000000000000e-02
5563, 5.714285714286e-04, -2.000000000000e-02, 1.000000000000e-02
5564, 1.714285714286e-03, -2.000000000000e-02, 1.000000000000e-02
5565, 2.857142857143e-03, -2.000000000000e-02, 1.000000000000e-02
5566, 4.000000000000e-03, -2.000000000000e-02, 1.000000000000e-02
5567, 5.142857142857e-03, -2.000000000000e-02, 1.000000000000e-02
5568, 6.285714285714e-03, -2.000000000000e-02, 1.000000000000e-02
5569, 7.428571428571e-03, -2.000000000000e-02, 1.000000000000e-02
5570, 8.571428571429e-03, -2.000000000000e-02, 1.000000000000e-02
5571, 9.714285714286e-03, -2.000000000000e-02, 1.000000000000e-02
5572, 1.085714285714e-02, -2.000000000000e-02, 1.000000000000e-02
5573, 1.200000000000e-02, -2.000000000000e-02, 1.000000000000e-02
5574, 1.314285714286e-02, -2.000000000000e-02, 1.000000000000e-02
5575, 1.428571428571e-02, -2.000000000000e-02, 1.000000000000e-02
5576, 1.542857142857e-02, -2.000000000000e-02, 1.000000000000e-02
5577, 1.657142857143e-02, -2.000000000000e-02, 1.000000000000e-02
5578, 1.771428571429e-02, -2.000000000000e-02, 1.000000000000e-02
5579, 1.885714285714e-02, -2.000000000000e-02, 1.000000000000e-02
5580, 2.000000000000e-02, -2.000000000000e-02, 1.000000000000e-02
5581, -2.000000000000e-02, -1.692307692308e-02, 1.000000000000e-02
5582, -1.885714285714e-02, -1.692307692308e-02, 1.000000000000e-02
5583, -1.771428571429e-02, -1.692307692308e-02, 1.000000000000e-02
5584, -1.657142857143e-02, -1.692307692308e-02, 1.000000000000e-02
5585, -1.542857142857e-02, -1.692307692308e-02, 1.000000000000e-02
5586, -1.428571428571e-02, -1.692307692308e-02, 1.000000000000e-02
5587, -1.314285714286e-02, -1.692307692308e-02, 1.000000000000e-02
5588, -1.200000000000e-02, -1.692307692308e-02, 1.000000000000e-02
5589, -1.085714285714e-02, -1.692307692308e-02, 1.000000000000e-02
5590, -9.714285714286e-03, -1.692307692308e-02, 1.000000000000e-02
5591, -8.571428571429e-03, -1.692307692308e-02, 1.000000000000e-02
5592, -7.428571428571e-03, -1.692307692308e-02, 1.000000000000e-02
5593, -6.285714285714e-03, -1.692307692308e-02, 1.000000000000e-02
5594, -5.142857142857e-03, -1.692307692308e-02, 1.000000000000e-02
5595, -4.000000000000e-03, -1.692307692308e-02, 1.000000000000e-02
5596, -2.857142857143e-03, -1.692307692308e-02, 1.000000000000e-02
5597, -1.714285714286e-03, -1.692307692308e-02, 1.000000000000e-02
5598, -5.714285714286e-04, -1.692307692308e-02, 1.000000000000e-02
5599, 5.714285714286e-04, -1.692307692308e-02, 1.000000000000e-02
5600, 1.714285714286e-03, -1.692307692308e-02, 1.000000000000e-02
5601, 2.857142857143e-03, -1.692307692308e-02, 1.000000000000e-02
5602, 4.000000000000e-03, -1.692307692308e-02, 1.000000000000e-02
5603, 5.142857142857e-03, -1.692307692308e-02, 1.000000000000e-02
5604, 6.285714285714e-03, -1.692307692308e-02, 1.000000000000e-02
5605, 7.428571428571e-03, -1.692307692308e-02, 1.000000000000e-02
5606, 8.571428571429e-03, -1.692307692308e-02, 1.000000000000e-02
5607, 9.714285714286e-03, -1.692307692308e-02, 1.000000000000e-02
5608, 1.085714285714e-02, -1.692307692308e-02, 1.000000000000e-02
5609, 1.200000000000e-02, -1.692307692308e-02, 1.000000000000e-02
5610, 1.314285714286e-02, -1.692307692308e-02, 1.000000000000e-02
5611, 1.428571428571e-02, -1.692307692308e-02, 1.000000000000e-02
5612, 1.542857142857e-02, -1.692307692308e-02, 1.000000000000e-02
5613, 1.657142857143e-02, -1.692307692308e-02, 1.000000000000e-02
5614, 1.771428571429e-02, -1.692307692308e-02, 1.000000000000e-02
5615, 1.885714285714e-02, -1.692307692308e-02, 1.000000000000e-02
5616, 2.000000000000e-02, -1.692307692308e-02, 1.000000000000e-02
5617, -2.000000000000e-02, -1.384615384615e-02, 1.000000000000e-02
5618, -1.885714285714e-02, -1.384615384615e-02, 1.000000000000e-02
5619, -1.771428571429e-02, -1.384615384615e-02, 1.000000000000e-02
5620, -1.657142857143e-02, -1.384615384615e-02, 1.000000000000e-02
5621, -1.542857142857e-02, -1.384615384615e-02, 1.000000000000e-02
5622, -1.428571428571e-02, -1.384615384615e-02, 1.000000000000e-02
5623, -1.314285714286e-02, -1.384615384615e-02, 1.000000000000e-02
5624, -1.200000000000e-02, -1.384615384615e-02, 1.000000000000e-02
5625, -1.085714285714e-02, -1.384615384615e-02, 1.000000000000e-02
5626, -9.714285714286e-03, -1.384615384615e-02, 1.000000000000e-02
5627, -8.571428571429e-03, -1.384615384615e-02, 1.000000000000e-02
5628, -7.428571428571e-03, -1.384615384615e-02, 1.000000000000e-02
5629, -6.285714285714e-03, -1.384615384615e-02, 1.000000000000e-02
5630, -5.142857142857e-03, -1.384615384615e-02, 1.000000000000e-02
5631, -4.000000000000e-03, -1.384615384615e-02, 1.000000000000e-02
5632, -2.857142857143e-03, -1.384615384615e-02, 1.000000000000e-02
5633, -1.714285714286e-03, -1.384615384615e-02, 1.000000000000e-02
5634, -5.714285714286e-04, -1.384615384615e-02, 1.000000000000e-02
5635, 5.714285714286e-04, -1.384615384615e-02, 1.000000000000e-02
5636, 1.714285714286e-03, -1.384615384615e-02, 1.000000000000e-02
5637, 2.857142857143e-03, -1.384615384615e-02, 1.000000000000e-02
5638, 4.000000000000e-03, -1.384615384615e-02, 1.000000000000e-02
5639, 5.142857142857e-03, -1.384615384615e-02, 1.000000000000e-02
5640, 6.285714285714e-03, -1.384615384615e-02, 1.000000000000e-02
5641, 7.428571428571e-03, -1.384615384615e-02, 1.000000000000e-02
5642, 8.571428571429e-03, -1.384615384615e-02, 1.000000000000e-02
5643, 9.714285714286e-03, -1.384615384615e-02, 1.000000000000e-02
5644, 1.085714285714e-02, -1.384615384615e-02, 1.000000000000e-02
5645, 1.200000000000e-02, -1.384615384615e-02, 1.000000000000e-02
5646, 1.314285714286e-02, -1.384615384615e-02, 1.000000000000e-02
5647, 1.428571428571e-02, -1.384615384615e-02, 1.000000000000e-02
5648, 1.542857142857e-02, -1.384615384615e-02, 1.000000000000e-02
5649, 1.657142857143e-02, -1.384615384615e-02, 1.000000000000e-02
5650, 1.771428571429e-02, -1.384615384615e-02, 1.000000000000e-02
5651, 1.885714285714e-02, -1.384615384615e-02, 1.000000000000e-02
5652, 2.000000000000e-02, -1.384615384615e-02, 1.000000000000e-02
5653, -2.000000000000e-02, -1.076923076923e-02, 1.000000000000e-02
5654, -1.885714285714e-02, -1.076923076923e-02, 1.000000000000e-02
5655, -1.771428571429e-02, -1.076923076923e-02, 1.000000000000e-02
5656, -1.657142857143e-02, -1.076923076923e-02, 1.000000000000e-02
5657, -1.542857142857e-02, -1.076923076923e-02, 1.000000000000e-02
5658, -1.428571428571e-02, -1.076923076923e-02, 1.000000000000e-02
5659, -1.314285714286e-02, -1.076923076923e-02, 1.000000000000e-02
5660, -1.200000000000e-02, -1.076923076923e-02, 1.000000000000e-02
5661, -1.085714285714e-02, -1.076923076923e-02, 1.000000000000e-02
5662, -9.714285714286e-03, -1.076923076923e-02, 1.000000000000e-02
5663, -8.571428571429e-03, -1.076923076923e-02, 1.000000000000e-02
5664, -7.428571428571e-03, -1.076923076923e-02, 1.000000000000e-02
5665, -6.285714285714e-03, -1.076923076923e-02, 1.000000000000e-02
5666, -5.142857142857e-03, -1.076923076923e-02, 1.000000000000e-02
5667, -4.000000000000e-03, -1.076923076923e-02, 1.000000000000e-02
5668, -2.857142857143e-03, -1.076923076923e-02, 1.000000000000e-02
5669, -1.714285714286e-03, -1.076923076923e-02, 1.000000000000e-02
5670, -5.714285714286e-04, -1.076923076923e-02, 1.000000000000e-02
5671, 5.714285714286e-04, -1.076923076923e-02, 1.000000000000e-02
5672, 1.714285714286e-03, -1.076923076923e-02, 1.000000000000e-02
5673, 2.857142857143e-03, -1.076923076923e-02, 1.000000000000e-02
5674, 4.000000000000e-03, -1.076923076923e-02, 1.000000000000e-02
5675, 5.142857142857e-03, -1.076923076923e-02, 1.000000000000e-02
5676, 6.285714285714e-03, -1.076923076923e-02, 1.000000000000e-02
5677, 7.428571428571e-03, -1.076923076923e-02, 1.000000000000e-02
5678, 8.571428571429e-03, -1.076923076923e-02, 1.000000000000e-02
5679, 9.714285714286e-03, -1.076923076923e-02, 1.000000000000e-02
5680, 1.085714285714e-02, -1.076923076923e-02, 1.000000000000e-02
5681, 1.200000000000e-02, -1.076923076923e-02, 1.000000000000e-02
5682, 1.314285714286e-02, -1.076923076923e-02, 1.000000000000e-02
5683, 1.428571428571e-02, -1.076923076923e-02, 1.000000000000e-02
5684, 1.542857142857e-02, -1.076923076923e-02, 1.000000000000e-02
5685, 1.657142857143e-02, -1.076923076923e-02, 1.000000000000e-02
5686, 1.771428571429e-02, -1.076923076923e-02, 1.000000000000e-02
5687, 1.885714285714e-02, -1.076923076923e-02, 1.000000000000e-02
5688, 2.000000000000e-02, -1.076923076923e-02, 1.000000000000e-02
5689, -2.000000000000e-02, -7.692307692308e-03, 1.000000000000e-02
5690, -1.885714285714e-02, -7.692307692308e-03, 1.000000000000e-02
5691, -1.771428571429e-02, -7.692307692308e-03, 1.000000000000e-02
5692, -1.657142857143e-02, -7.692307692308e-03, 1.000000000000e-02
5693, -1.542857142857e-02, -7.692307692308e-03, 1.000000000000e-02
5694, -1.428571428571e-02, -7.692307692308e-03, 1.000000000000e-02
5695, -1.314285714286e-02, -7.692307692308e-03, 1.000000000000e-02
5696, -1.200000000000e-02, -7.692307692308e-03, 1.000000000000e-02
5697, -1.085714285714e-02, -7.692307692308e-03, 1.000000000000e-02
5698, -9.714285714286e-03, -7.692307692308e-03, 1.000000000000e-02
5699, -8.571428571429e-03, -7.692307692308e-03, 1.000000000000e-02
5700, -7.428571428571e-03, -7.692307692308e-03, 1.000000000000e-02
5701, -6.285714285714e-03, -7.692307692308e-03, 1.000000000000e-02
5702, -5.142857142857e-03, -7.692307692308e-03, 1.000000000000e-02
5703, -4.000000000000e-03, -7.692307692308e-03, 1.000000000000e-02
5704, -2.857142857143e-03, -7.692307692308e-03, 1.000000000000e-02
5705, -1.714285714286e-03, -7.692307692308e-03, 1.000000000000e-02
5706, -5.714285714286e-04, -7.692307692308e-03, 1.000000000000e-02
5707, 5.714285714286e-04, -7.692307692308e-03, 1.000000000000e-02
5708, 1.714285714286e-03, -7.692307692308e-03, 1.000000000000e-02
5709, 2.857142857143e-03, -7.692307692308e-03, 1.000000000000e-02
5710, 4.000000000000e-03, -7.692307692308e-03, 1.000000000000e-02
5711, 5.142857142857e-03, -7.692307692308e-03, 1.000000000000e-02
5712, 6.285714285714e-03, -7.692307692308e-03, 1.000000000000e-02
5713, 7.428571428571e-03, -7.692307692308e-03, 1.000000000000e-02
5714, 8.571428571429e-03, -7.692307692308e-03, 1.000000000000e-02
5715, 9.714285714286e-03, -7.692307692308e-03, 1.000000000000e-02
5716, 1.085714285714e-02, -7.692307692308e-03, 1.000000000000e-02
5717, 1.200000000000e-02, -7.692307692308e-03, 1.000000000000e-02
5718, 1.314285714286e-02, -7.692307692308e-03, 1.000000000000e-02
5719, 1.428571428571e-02, -7.692307692308e-03, 1.000000000000e-02
5720, 1.542857142857e-02, -7.692307692308e-03, 1.000000000000e-02
5721, 1.657142857143e-02, -7.692307692308e-03, 1.000000000000e-02
5722, 1.771428571429e-02, -7.692307692308e-03, 1.000000000000e-02
5723, 1.885714285714e-02, -7.692307692308e-03, 1.000000000000e-02
5724, 2.000000000000e-02, -7.692307692308e-03, 1.000000000000e-02
5725, -2.000000000000e-02, -4.615384615385e-03, 1.000000000000e-02
5726, -1.885714285714e-02, -4.615384615385e-03, 1.000000000000e-02
5727, -1.771428571429e-02, -4.615384615385e-03, 1.000000000000e-02
5728, -1.657142857143e-02, -4.615384615385e-03, 1.000000000000e-02
5729, -1.542857142857e-02, -4.615384615385e-03, 1.000000000000e-02
5730, -1.428571428571e-02, -4.615384615385e-03, 1.000000000000e-02
5731, -1.314285714286e-02, -4.615384615385e-03, 1.000000000000e-02
5732, -1.200000000000e-02, -4.615384615385e-03, 1.000000000000e-02
5733, -1.085714285714e-02, -4.615384615385e-03, 1.000000000000e-02
5734, -9.714285714286e-03, -4.615384615385e-03, 1.000000000000e-02
5735, -8.571428571429e-03, -4.615384615385e-03, 1.000000000000e-02
5736, -7.428571428571e-03, -4.615384615385e-03, 1.000000000000e-02
5737, -6.285714285714e-03, -4.615384615385e-03, 1.000000000000e-02
5738, -5.142857142857e-03, -4.615384615385e-03, 1.000000000000e-02
5739, -4.000000000000e-03, -4.615384615385e-03, 1.000000000000e-02
5740, -2.857142857143e-03, -4.615384615385e-03, 1.000000000000e-02
5741, -1.714285714286e-03, -4.615384615385e-03, 1.000000000000e-02
5742, -5.714285714286e-04, -4.615384615385e-03, 1.000000000000e-02
5743, 5.714285714286e-04, -4.615384615385e-03, 1.000000000000e-02
5744, 1.714285714286e-03, -4.615384615385e-03, 1.000000000000e-02
5745, 2.857142857143e-03, -4.615384615385e-03, 1.000000000000e-02
5746, 4.000000000000e-03, -4.615384615385e-03, 1.000000000000e-02
5747, 5.142857142857e-03, -4.615384615385e-03, 1.000000000000e-02
5748, 6.285714285714e-03, -4.615384615385e-03, 1.000000000000e-02
5749, 7.428571428571e-03, -4.615384615385e-03, 1.000000000000e-02
5750, 8.571428571429e-03, -4.615384615385e-03, 1.000000000000e-02
5751, 9.714285714286e-03, -4.615384615385e-03, 1.000000000000e-02
5752, 1.085714285714e-02, -4.615384615385e-03, 1.000000000000e-02
5753, 1.200000000000e-02, -4.615384615385e-03, 1.000000000000e-02
5754, 1.314285714286e-02, -4.615384615385e-03, 1.000000000000e-02
5755, 1.428571428571e-02, -4.615384615385e-03, 1.000000000000e-02
5756, 1.542857142857e-02, -4.615384615385e-03, 1.000000000000e-02
5757, 1.657142857143e-02, -4.615384615385e-03, 1.000000000000e-02
5758, 1.771428571429e-02, -4.615384615385e-03, 1.000000000000e-02
5759, 1.885714285714e-02, -4.615384615385e-03, 1.000000000000e-02
5760, 2.000000000000e-02, -4.615384615385e-03, 1.000000000000e-02
5761, -2.000000000000e-02, -1.538461538462e-03, 1.000000000000e-02
5762, -1.885714285714e-02, -1.538461538462e-03, 1.000000000000e-02
5763, -1.771428571429e-02, -1.538461538462e-03, 1.000000000000e-02
5764, -1.657142857143e-02, -1.538461538462e-03, 1.000000000000e-02
5765, -1.542857142857e-02, -1.538461538462e-03, 1.000000000000e-02
5766, -1.428571428571e-02, -1.538461538462e-03, 1.000000000000e-02
5767, -1.314285714286e-02, -1.538461538462e-03, 1.000000000000e-02
5768, -1.200000000000e-02, -1.538461538462e-03, 1.000000000000e-02
5769, -1.085714285714e-02, -1.538461538462e-03, 1.000000000000e-02
5770, -9.714285714286e-03, -1.538461538462e-03, 1.000000000000e-02
5771, -8.571428571429e-03, -1.538461538462e-03, 1.000000000000e-02
5772, -7.428571428571e-03, -1.538461538462e-03, 1.000000000000e-02
5773, -6.285714285714e-03, -1.538461538462e-03, 1.000000000000e-02
5774, -5.142857142857e-03, -1.538461538462e-03, 1.000000000000e-02
5775, -4.000000000000e-03, -1.538461538462e-03, 1.000000000000e-02
5776, -2.857142857143e-03, -1.538461538462e-03, 1.000000000000e-02
5777, -1.714285714286e-03, -1.538461538462e-03, 1.000000000000e-02
5778, -5.714285714286e-04, -1.538461538462e-03, 1.000000000000e-02
5779, 5.714285714286e-04, -1.538461538462e-03, 1.000000000000e-02
5780, 1.714285714286e-03, -1.538461538462e-03, 1.000000000000e-02
5781, 2.857142857143e-03, -1.538461538462e-03, 1.000000000000e-02
5782, 4.000000000000e-03, -1.538461538462e-03, 1.000000000000e-02
5783, 5.142857142857e-03, -1.538461538462e-03, 1.000000000000e-02
5784, 6.285714285714e-03, -1.538461538462e-03, 1.000000000000e-02
5785, 7.428571428571e-03, -1.538461538462e-03, 1.000000000000e-02
5786, 8.571428571429e-03, -1.538461538462e-03, 1.000000000000e-02
5787, 9.714285714286e-03, -1.538461538462e-03, 1.000000000000e-02
5788, 1.085714285714e-02, -1.538461538462e-03, 1.000000000000e-02
5789, 1.200000000000e-02, -1.538461538462e-03, 1.000000000000e-02
5790, 1.314285714286e-02, -1.538461538462e-03, 1.000000000000e-02
5791, 1.428571428571e-02, -1.538461538462e-03, 1.000000000000e-02
5792, 1.542857142857e-02, -1.538461538462e-03, 1.000000000000e-02
5793, 1.657142857143e-02, -1.538461538462e-03, 1.000000000000e-02
5794, 1.771428571429e-02, -1.538461538462e-03, 1.000000000000e-02
5795, 1.885714285714e-02, -1.538461538462e-03, 1.000000000000e-02
5796, 2.000000000000e-02, -1.538461538462e-03, 1.000000000000e-02
5797, -2.000000000000e-02, 1.538461538462e-03, 1.000000000000e-02
5798, -1.885714285714e-02, 1.538461538462e-03, 1.000000000000e-02
5799, -1.771428571429e-02, 1.538461538462e-03, 1.000000000000e-02
5800, -1.657142857143e-02, 1.538461538462e-03, 1.000000000000e-02
5801, -1.542857142857e-02, 1.538461538462e-03, 1.000000000000e-02
5802, -1.428571428571e-02, 1.538461538462e-03, 1.000000000000e-02
5803, -1.314285714286e-02, 1.538461538462e-03, 1.000000000000e-02
5804, -1.200000000000e-02, 1.538461538462e-03, 1.000000000000e-02
5805, -1.085714285714e-02, 1.538461538462e-03, 1.000000000000e-02
5806, -9.714285714286e-03, 1.538461538462e-03, 1.000000000000e-02
5807, -8.571428571429e-03, 1.538461538462e-03, 1.000000000000e-02
5808, -7.428571428571e-03, 1.538461538462e-03, 1.000000000000e-02
5809, -6.285714285714e-03, 1.538461538462e-03, 1.000000000000e-02
5810, -5.142857142857e-03, 1.538461538462e-03, 1.000000000000e-02
5811, -4.000000000000e-03, 1.538461538462e-03, 1.000000000000e-02
5812, -2.857142857143e-03, 1.538461538462e-03, 1.000000000000e-02
5813, -1.714285714286e-03, 1.538461538462e-03, 1.000000000000e-02
5814, -5.714285714286e-04, 1.538461538462e-03, 1.000000000000e-02
5815, 5.714285714286e-04, 1.538461538462e-03, 1.000000000000e-02
5816, 1.714285714286e-03, 1.538461538462e-03, 1.000000000000e-02
5817, 2.857142857143e-03, 1.538461538462e-03, 1.000000000000e-02
5818, 4.000000000000e-03, 1.538461538462e-03, 1.000000000000e-02
5819, 5.142857142857e-03, 1.538461538462e-03, 1.000000000000e-02
5820, 6.285714285714e-03, 1.538461538462e-03, 1.000000000000e-02
5821, 7.428571428571e-03, 1.538461538462e-03, 1.000000000000e-02
5822, 8.571428571429e-03, 1.538461538462e-03, 1.000000000000e-02
5823, 9.714285714286e-03, 1.538461538462e-03, 1.000000000000e-02
5824, 1.085714285714e-02, 1.538461538462e-03, 1.000000000000e-02
5825, 1.200000000000e-02, 1.538461538462e-03, 1.000000000000e-02
5826, 1.314285714286e-02, 1.538461538462e-03, 1.000000000000e-02
5827, 1.428571428571e-02, 1.538461538462e-03, 1.000000000000e-02
5828, 1.542857142857e-02, 1.538461538462e-03, 1.000000000000e-02
5829, 1.657142857143e-02, 1.538461538462e-03, 1.000000000000e-02
5830, 1.771428571429e-02, 1.538461538462e-03, 1.000000000000e-02
5831, 1.885714285714e-02, 1.538461538462e-03, 1.000000000000e-02
5832, 2.000000000000e-02, 1.538461538462e-03, 1.000000000000e-02
5833, -2.000000000000e-02, 4.615384615385e-03, 1.000000000000e-02
5834, -1.885714285714e-02, 4.615384615385e-03, 1.000000000000e-02
5835, -1.771428571429e-02, 4.615384615385e-03, 1.000000000000e-02
5836, -1.657142857143e-02, 4.615384615385e-03, 1.000000000000e-02
5837, -1.542857142857e-02, 4.615384615385e-03, 1.000000000000e-02
5838, -1.428571428571e-02, 4.615384615385e-03, 1.000000000000e-02
5839, -1.314285714286e-02, 4.615384615385e-03, 1.000000000000e-02
5840, -1.200000000000e-02, 4.615384615385e-03, 1.000000000000e-02
5841, -1.085714285714e-02, 4.615384615385e-03, 1.000000000000e-02
5842, -9.714285714286e-03, 4.615384615385e-03, 1.000000000000e-02
5843, -8.571428571429e-03, 4.615384615385e-03, 1.000000000000e-02
5844, -7.428571428571e-03, 4.615384615385e-03, 1.000000000000e-02
5845, -6.285714285714e-03, 4.615384615385e-03, 1.000000000000e-02
5846, -5.142857142857e-03, 4.615384615385e-03, 1.000000000000e-02
5847, -4.000000000000e-03, 4.615384615385e-03, 1.000000000000e-02
5848, -2.857142857143e-03, 4.615384615385e-03, 1.000000000000e-02
5849, -1.714285714286e-03, 4.615384615385e-03, 1.000000000000e-02
5850, -5.714285714286e-04, 4.615384615385e-03, 1.000000000000e-02
5851, 5.714285714286e-04, 4.615384615385e-03, 1.000000000000e-02
5852, 1.714285714286e-03, 4.615384615385e-03, 1.000000000000e-02
5853, 2.857142857143e-03, 4.615384615385e-03, 1.000000000000e-02
5854, 4.000000000000e-03, 4.615384615385e-03, 1.000000000000e-02
5855, 5.142857142857e-03, 4.615384615385e-03, 1.000000000000e-02
5856, 6.285714285714e-03, 4.615384615385e-03, 1.000000000000e-02
5857, 7.428571428571e-03, 4.615384615385e-03, 1.000000000000e-02
5858, 8.571428571429e-03, 4.615384615385e-03, 1.000000000000e-02
5859, 9.714285714286e-03, 4.615384615385e-03, 1.000000000000e-02
5860, 1.085714285714e-02, 4.615384615385e-03, 1.000000000000e-02
5861, 1.200000000000e-02, 4.615384615385e-03, 1.000000000000e-02
5862, 1.314285714286e-02, 4.615384615385e-03, 1.000000000000e-02
5863, 1.428571428571e-02, 4.615384615385e-03, 1.000000000000e-02
5864, 1.542857142857e-02, 4.615384615385e-03, 1.000000000000e-02
5865, 1.657142857143e-02, 4.615384615385e-03, 1.000000000000e-02
5866, 1.771428571429e-02, 4.615384615385e-03, 1.000000000000e-02
5867, 1.885714285714e-02, 4.615384615385e-03, 1.000000000000e-02
5868, 2.000000000000e-02, 4.615384615385e-03, 1.000000000000e-02
5869, -2.000000000000e-02, 7.692307692308e-03, 1.000000000000e-02
5870, -1.885714285714e-02, 7.692307692308e-03, 1.000000000000e-02
5871, -1.771428571429e-02, 7.692307692308e-03, 1.000000000000e-02
5872, -1.657142857143e-02, 7.692307692308e-03, 1.000000000000e-02
5873, -1.542857142857e-02, 7.692307692308e-03, 1.000000000000e-02
5874, -1.428571428571e-02, 7.692307692308e-03, 1.000000000000e-02
5875, -1.314285714286e-02, 7.692307692308e-03, 1.000000000000e-02
5876, -1.200000000000e-02, 7.692307692308e-03, 1.000000000000e-02
5877, -1.085714285714e-02, 7.692307692308e-03, 1.000000000000e-02
5878, -9.714285714286e-03, 7.692307692308e-03, 1.000000000000e-02
5879, -8.571428571429e-03, 7.692307692308e-03, 1.000000000000e-02
5880, -7.428571428571e-03, 7.692307692308e-03, 1.000000000000e-02
5881, -6.285714285714e-03, 7.692307692308e-03, 1.000000000000e-02
5882, -5.142857142857e-03, 7.692307692308e-03, 1.000000000000e-02
5883, -4.000000000000e-03, 7.692307692308e-03, 1.000000000000e-02
5884, -2.857142857143e-03, 7.692307692308e-03, 1.000000000000e-02
5885, -1.714285714286e-03, 7.692307692308e-03, 1.000000000000e-02
5886, -5.714285714286e-04, 7.692307692308e-03, 1.000000000000e-02
5887, 5.714285714286e-04, 7.692307692308e-03, 1.000000000000e-02
5888, 1.714285714286e-03, 7.692307692308e-03, 1.000000000000e-02
5889, 2.857142857143e-03, 7.692307692308e-03, 1.000000000000e-02
5890, 4.000000000000e-03, 7.692307692308e-03, 1.000000000000e-02
5891, 5.142857142857e-03, 7.692307692308e-03, 1.000000000000e-02
5892, 6.285714285714e-03, 7.692307692308e-03, 1.000000000000e-02
5893, 7.428571428571e-03, 7.692307692308e-03, 1.000000000000e-02
5894, 8.571428571429e-03, 7.692307692308e-03, 1.000000000000e-02
5895, 9.714285714286e-03, 7.692307692308e-03, 1.000000000000e-02
5896, 1.085714285714e-02, 7.692307692308e-03, 1.000000000000e-02
5897, 1.200000000000e-02, 7.692307692308e-03, 1.000000000000e-02
5898, 1.314285714286e-02, 7.692307692308e-03, 1.000000000000e-02
5899, 1.428571428571e-02, 7.692307692308e-03, 1.000000000000e-02
5900, 1.542857142857e-02, 7.692307692308e-03, 1.000000000000e-02
5901, 1.657142857143e-02, 7.692307692308e-03, 1.000000000000e-02
5902, 1.771428571429e-02, 7.692307692308e-03, 1.000000000000e-02
5903, 1.885714285714e-02, 7.692307692308e-03, 1.000000000000e-02
5904, 2.000000000000e-02, 7.692307692308e-03, 1.000000000000e-02
5905, -2.000000000000e-02, 1.076923076923e-02, 1.000000000000e-02
5906, -1.885714285714e-02, 1.076923076923e-02, 1.000000000000e-02
5907, -1.771428571429e-02, 1.076923076923e-02, 1.000000000000e-02
5908, -1.657142857143e-02, 1.076923076923e-02, 1.000000000000e-02
5909, -1.542857142857e-02, 1.076923076923e-02, 1.000000000000e-02
5910, -1.428571428571e-02, 1.076923076923e-02, 1.000000000000e-02
5911, -1.314285714286e-02, 1.076923076923e-02, 1.000000000000e-02
5912, -1.200000000000e-02, 1.076923076923e-02, 1.000000000000e-02
5913, -1.085714285714e-02, 1.076923076923e-02, 1.000000000000e-02
5914, -9.714285714286e-03, 1.076923076923e-02, 1.000000000000e-02
5915, -8.571428571429e-03, 1.076923076923e-02, 1.000000000000e-02
5916, -7.428571428571e-03, 1.076923076923e-02, 1.000000000000e-02
5917, -6.285714285714e-03, 1.076923076923e-02, 1.000000000000e-02
5918, -5.142857142857e-03, 1.076923076923e-02, 1.000000000000e-02
5919, -4.000000000000e-03, 1.076923076923e-02, 1.000000000000e-02
5920, -2.857142857143e-03, 1.076923076923e-02, 1.000000000000e-02
5921, -1.714285714286e-03, 1.076923076923e-02, 1.000000000000e-02
5922, -5.714285714286e-04, 1.076923076923e-02, 1.000000000000e-02
5923, 5.714285714286e-04, 1.076923076923e-02, 1.000000000000e-02
5924, 1.714285714286e-03, 1.076923076923e-02, 1.000000000000e-02
5925, 2.857142857143e-03, 1.076923076923e-02, 1.000000000000e-02
5926, 4.000000000000e-03, 1.076923076923e-02, 1.000000000000e-02
5927, 5.142857142857e-03, 1.076923076923e-02, 1.000000000000e-02
5928, 6.285714285714e-03, 1.076923076923e-02, 1.000000000000e-02
5929, 7.428571428571e-03, 1.076923076923e-02, 1.000000000000e-02
5930, 8.571428571429e-03, 1.076923076923e-02, 1.000000000000e-02
5931, 9.714285714286e-03, 1.076923076923e-02, 1.000000000000e-02
5932, 1.085714285714e-02, 1.076923076923e-02, 1.000000000000e-02
5933, 1.200000000000e-02, 1.076923076923e-02, 1.000000000000e-02
5934, 1.314285714286e-02, 1.076923076923e-02, 1.000000000000e-02
5935, 1.428571428571e-02, 1.076923076923e-02, 1.000000000000e-02
5936, 1.542857142857e-02, 1.076923076923e-02, 1.000000000000e-02
5937, 1.657142857143e-02, 1.076923076923e-02, 1.000000000000e-02
5938, 1.771428571429e-02, 1.076923076923e-02, 1.000000000000e-02
5939, 1.885714285714e-02, 1.076923076923e-02, 1.000000000000e-02
5940, 2.000000000000e-02, 1.076923076923e-02, 1.000000000000e-02
5941, -2.000000000000e-02, 1.384615384615e-02, 1.000000000000e-02
5942, -1.885714285714e-02, 1.384615384615e-02, 1.000000000000e-02
5943, -1.771428571429e-02, 1.384615384615e-02, 1.000000000000e-02
5944, -1.657142857143e-02, 1.384615384615e-02, 1.000000000000e-02
5945, -1.542857142857e-02, 1.384615384615e-02, 1.000000000000e-02
5946, -1.428571428571e-02, 1.384615384615e-02, 1.000000000000e-02
5947, -1.314285714286e-02, 1.384615384615e-02, 1.000000000000e-02
5948, -1.200000000000e-02, 1.384615384615e-02, 1.000000000000e-02
5949, -1.085714285714e-02, 1.384615384615e-02, 1.000000000000e-02
5950, -9.714285714286e-03, 1.384615384615e-02, 1.000000000000e-02
5951, -8.571428571429e-03, 1.384615384615e-02, 1.000000000000e-02
5952, -7.428571428571e-03, 1.384615384615e-02, 1.000000000000e-02
5953, -6.285714285714e-03, 1.384615384615e-02, 1.000000000000e-02
5954, -5.142857142857e-03, 1.384615384615e-02, 1.000000000000e-02
5955, -4.000000000000e-03, 1.384615384615e-02, 1.000000000000e-02
5956, -2.857142857143e-03, 1.384615384615e-02, 1.000000000000e-02
5957, -1.714285714286e-03, 1.384615384615e-02, 1.000000000000e-02
5958, -5.714285714286e-04, 1.384615384615e-02, 1.000000000000e-02
5959, 5.714285714286e-04, 1.384615384615e-02, 1.000000000000e-02
5960, 1.714285714286e-03, 1.384615384615e-02, 1.000000000000e-02
5961, 2.857142857143e-03, 1.384615384615e-02, 1.000000000000e-02
5962, 4.000000000000e-03, 1.384615384615e-02, 1.000000000000e-02
5963, 5.142857142857e-03, 1.384615384615e-02, 1.000000000000e-02
5964, 6.285714285714e-03, 1.384615384615e-02, 1.000000000000e-02
5965, 7.428571428571e-03, 1.384615384615e-02, 1.000000000000e-02
5966, 8.571428571429e-03, 1.384615384615e-02, 1.000000000000e-02
5967, 9.714285714286e-03, 1.384615384615e-02, 1.000000000000e-02
5968, 1.085714285714e-02, 1.384615384615e-02, 1.000000000000e-02
5969, 1.200000000000e-02, 1.384615384615e-02, 1.000000000000e-02
5970, 1.314285714286e-02, 1.384615384615e-02, 1.000000000000e-02
5971, 1.428571428571e-02, 1.384615384615e-02, 1.000000000000e-02
5972, 1.542857142857e-02, 1.384615384615e-02, 1.000000000000e-02
5973, 1.657142857143e-02, 1.384615384615e-02, 1.000000000000e-02
5974, 1.771428571429e-02, 1.384615384615e-02, 1.000000000000e-02
5975, 1.885714285714e-02, 1.384615384615e-02, 1.000000000000e-02
5976, 2.000000000000e-02, 1.384615384615e-02, 1.000000000000e-02
5977, -2.000000000000e-02, 1.692307692308e-02, 1.000000000000e-02
5978, -1.885714285714e-02, 1.692307692308e-02, 1.000000000000e-02
5979, -1.771428571429e-02, 1.692307692308e-02, 1.000000000000e-02
5980, -1.657142857143e-02, 1.692307692308e-02, 1.000000000000e-02
5981, -1.542857142857e-02, 1.692307692308e-02, 1.000000000000e-02
5982, -1.428571428571e-02, 1.692307692308e-02, 1.000000000000e-02
5983, -1.314285714286e-02, 1.692307692308e-02, 1.000000000000e-02
5984, -1.200000000000e-02, 1.692307692308e-02, 1.000000000000e-02
5985, -1.085714285714e-02, 1.692307692308e-02, 1.000000000000e-02
5986, -9.714285714286e-03, 1.692307692308e-02, 1.000000000000e-02
5987, -8.571428571429e-03, 1.692307692308e-02, 1.000000000000e-02
5988, -7.428571428571e-03, 1.692307692308e-02, 1.000000000000e-02
5989, -6.285714285714e-03, 1.692307692308e-02, 1.000000000000e-02
5990, -5.142857142857e-03, 1.692307692308e-02, 1.000000000000e-02
5991, -4.000000000000e-03, 1.692307692308e-02, 1.000000000000e-02
5992, -2.857142857143e-03, 1.692307692308e-02, 1.000000000000e-02
5993, -1.714285714286e-03, 1.692307692308e-02, 1.000000000000e-02
5994, -5.714285714286e-04, 1.692307692308e-02, 1.000000000000e-02
5995, 5.714285714286e-04, 1.692307692308e-02, 1.000000000000e-02
5996, 1.714285714286e-03, 1.692307692308e-02, 1.000000000000e-02
5997, 2.857142857143e-03, 1.692307692308e-02, 1.000000000000e-02
5998, 4.000000000000e-03, 1.692307692308e-02, 1.000000000000e-02
5999, 5.142857142857e-03, 1.692307692308e-02, 1.000000000000e-02
6000, 6.285714285714e-03, 1.692307692308e-02, 1.000000000000e-02
6001, 7.428571428571e-03, 1.692307692308e-02, 1.000000000000e-02
6002, 8.571428571429e-03, 1.692307692308e-02, 1.000000000000e-02
6003, 9.714285714286e-03, 1.692307692308e-02, 1.000000000000e-02
6004, 1.085714285714e-02, 1.692307692308e-02, 1.000000000000e-02
6005, 1.200000000000e-02, 1.692307692308e-02, 1.000000000000e-02
6006, 1.314285714286e-02, 1.692307692308e-02, 1.000000000000e-02
6007, 1.428571428571e-02, 1.692307692308e-02, 1.000000000000e-02
6008, 1.542857142857e-02, 1.692307692308e-02, 1.000000000000e-02
6009, 1.657142857143e-02, 1.692307692308e-02, 1.000000000000e-02
6010, 1.771428571429e-02, 1.692307692308e-02, 1.000000000000e-02
6011, 1.885714285714e-02, 1.692307692308e-02, 1.000000000000e-02
6012, 2.000000000000e-02, 1.692307692308e-02, 1.000000000000e-02
6013, -2.000000000000e-02, 2.000000000000e-02, 1.000000000000e-02
6014, -1.885714285714e-02, 2.000000000000e-02, 1.000000000000e-02
6015, -1.771428571429e-02, 2.000000000000e-02, 1.000000000000e-02
6016, -1.657142857143e-02, 2.000000000000e-02, 1.000000000000e-02
6017, -1.542857142857e-02, 2.000000000000e-02, 1.000000000000e-02
6018, -1.428571428571e-02, 2.000000000000e-02, 1.000000000000e-02
6019, -1.314285714286e-02, 2.000000000000e-02, 1.000000000000e-02
6020, -1.200000000000e-02, 2.000000000000e-02, 1.000000000000e-02
6021, -1.085714285714e-02, 2.000000000000e-02, 1.000000000000e-02
6022, -9.714285714286e-03, 2.000000000000e-02, 1.000000000000e-02
6023, -8.571428571429e-03, 2.000000000000e-02, 1.000000000000e-02
6024, -7.428571428571e-03, 2.000000000000e-02, 1.000000000000e-02
6025, -6.285714285714e-03, 2.000000000000e-02, 1.000000000000e-02
6026, -5.142857142857e-03, 2.000000000000e-02, 1.000000000000e-02
6027, -4.000000000000e-03, 2.000000000000e-02, 1.000000000000e-02
6028, -2.857142857143e-03, 2.000000000000e-02, 1.000000000000e-02
6029, -1.714285714286e-03, 2.000000000000e-02, 1.000000000000e-02
6030, -5.714285714286e-04, 2.000000000000e-02, 1.000000000000e-02
6031, 5.714285714286e-04, 2.000000000000e-02, 1.000000000000e-02
6032, 1.714285714286e-03, 2.000000000000e-02, 1.000000000000e-02
6033, 2.857142857143e-03, 2.000000000000e-02, 1.000000000000e-02
6034, 4.000000000000e-03, 2.000000000000e-02, 1.000000000000e-02
6035, 5.142857142857e-03, 2.000000000000e-02, 1.000000000000e-02
6036, 6.285714285714e-03, 2.000000000000e-02, 1.000000000000e-02
6037, 7.428571428571e-03, 2.000000000000e-02, 1.000000000000e-02
6038, 8.571428571429e-03, 2.000000000000e-02, 1.000000000000e-02
6039, 9.714285714286e-03, 2.000000000000e-02, 1.000000000000e-02
6040, 1.085714285714e-02, 2.000000000000e-02, 1.000000000000e-02
6041, 1.200000000000e-02, 2.000000000000e-02, 1.000000000000e-02
6042, 1.314285714286e-02, 2.000000000000e-02, 1.000000000000e-02
6043, 1.428571428571e-02, 2.000000000000e-02, 1.000000000000e-02
6044, 1.542857142857e-02, 2.000000000000e-02, 1.000000000000e-02
6045, 1.657142857143e-02, 2.000000000000e-02, 1.000000000000e-02
6046, 1.771428571429e-02, 2.000000000000e-02, 1.000000000000e-02
6047, 1.885714285714e-02, 2.000000000000e-02, 1.000000000000e-02
6048, 2.000000000000e-02, 2.000000000000e-02, 1.000000000000e-02
*Element, type=C3D8RT, elset=ALL_ELEMENTS
1, 1, 2, 38, 37, 505, 506, 542, 541
2, 2, 3, 39, 38, 506, 507, 543, 542
3, 3, 4, 40, 39, 507, 508, 544, 543
4, 4, 5, 41, 40, 508, 509, 545, 544
5, 5, 6, 42, 41, 509, 510, 546, 545
6, 6, 7, 43, 42, 510, 511, 547, 546
7, 7, 8, 44, 43, 511, 512, 548, 547
8, 8, 9, 45, 44, 512, 513, 549, 548
9, 9, 10, 46, 45, 513, 514, 550, 549
10, 10, 11, 47, 46, 514, 515, 551, 550
11, 11, 12, 48, 47, 515, 516, 552, 551
12, 12, 13, 49, 48, 516, 517, 553, 552
13, 13, 14, 50, 49, 517, 518, 554, 553
14, 14, 15, 51, 50, 518, 519, 555, 554
15, 15, 16, 52, 51, 519, 520, 556, 555
16, 16, 17, 53, 52, 520, 521, 557, 556
17, 17, 18, 54, 53, 521, 522, 558, 557
18, 18, 19, 55, 54, 522, 523, 559, 558
19, 19, 20, 56, 55, 523, 524, 560, 559
20, 20, 21, 57, 56, 524, 525, 561, 560
21, 21, 22, 58, 57, 525, 526, 562, 561
22, 22, 23, 59, 58, 526, 527, 563, 562
23, 23, 24, 60, 59, 527, 528, 564, 563
24, 24, 25, 61, 60, 528, 529, 565, 564
25, 25, 26, 62, 61, 529, 530, 566, 565
26, 26, 27, 63, 62, 530, 531, 567, 566
27, 27, 28, 64, 63, 531, 532, 568, 567
28, 28, 29, 65, 64, 532, 533, 569, 568
29, 29, 30, 66, 65, 533, 534, 570, 569
30, 30, 31, 67, 66, 534, 535, 571, 570
31, 31, 32, 68, 67, 535, 536, 572, 571
32, 32, 33, 69, 68, 536, 537, 573, 572
33, 33, 34, 70, 69, 537, 538, 574, 573
34, 34, 35, 71, 70, 538, 539, 575, 574
35, 35, 36, 72, 71, 539, 540, 576, 575
36, 37, 38, 74, 73, 541, 542, 578, 577
37, 38, 39, 75, 74, 542, 543, 579, 578
38, 39, 40, 76, 75, 543, 544, 580, 579
39, 40, 41, 77, 76, 544, 545, 581, 580
40, 41, 42, 78, 77, 545, 546, 582, 581
41, 42, 43, 79, 78, 546, 547, 583, 582
42, 43, 44, 80, 79, 547, 548, 584, 583
43, 44, 45, 81, 80, 548, 549, 585, 584
44, 45, 46, 82, 81, 549, 550, 586, 585
45, 46, 47, 83, 82, 550, 551, 587, 586
46, 47, 48, 84, 83, 551, 552, 588, 587
47, 48, 49, 85, 84, 552, 553, 589, 588
48, 49, 50, 86, 85, 553, 554, 590, 589
49, 50, 51, 87, 86, 554, 555, 591, 590
50, 51, 52, 88, 87, 555, 556, 592, 591
51, 52, 53, 89, 88, 556, 557, 593, 592
52, 53, 54, 90, 89, 557, 558, 594, 593
53, 54, 55, 91, 90, 558, 559, 595, 594
54, 55, 56, 92, 91, 559, 560, 596, 595
55, 56, 57, 93, 92, 560, 561, 597, 596
56, 57, 58, 94, 93, 561, 562, 598, 597
57, 58, 59, 95, 94, 562, 563, 599, 598
58, 59, 60, 96, 95, 563, 564, 600, 599
59, 60, 61, 97, 96, 564, 565, 601, 600
60, 61, 62, 98, 97, 565, 566, 602, 601
61, 62, 63, 99, 98, 566, 567, 603, 602
62, 63, 64, 100, 99, 567, 568, 604, 603
63, 64, 65, 101, 100, 568, 569, 605, 604
64, 65, 66, 102, 101, 569, 570, 606, 605
65, 66, 67, 103, 102, 570, 571, 607, 606
66, 67, 68, 104, 103, 571, 572, 608, 607
67, 68, 69, 105, 104, 572, 573, 609, 608
68, 69, 70, 106, 105, 573, 574, 610, 609
69, 70, 71, 107, 106, 574, 575, 611, 610
70, 71, 72, 108, 107, 575, 576, 612, 611
71, 73, 74, 110, 109, 577, 578, 614, 613
72, 74, 75, 111, 110, 578, 579, 615, 614
73, 75, 76, 112, 111, 579, 580, 616, 615
74, 76, 77, 113, 112, 580, 581, 617, 616
75, 77, 78, 114, 113, 581, 582, 618, 617
76, 78, 79, 115, 114, 582, 583, 619, 618
77, 79, 80, 116, 115, 583, 584, 620, 619
78, 80, 81, 117, 116, 584, 585, 621, 620
79, 81, 82, 118, 117, 585, 586, 622, 621
80, 82, 83, 119, 118, 586, 587, 623, 622
81, 83, 84, 120, 119, 587, 588, 624, 623
82, 84, 85, 121, 120, 588, 589, 625, 624
83, 85, 86, 122, 121, 589, 590, 626, 625
84, 86, 87, 123, 122, 590, 591, 627, 626
85, 87, 88, 124, 123, 591, 592, 628, 627
86, 88, 89, 125, 124, 592, 593, 629, 628
87, 89, 90, 126, 125, 593, 594, 630, 629
88, 90, 91, 127, 126, 594, 595, 631, 630
89, 91, 92, 128, 127, 595, 596, 632, 631
90, 92, 93, 129, 128, 596, 597, 633, 632
91, 93, 94, 130, 129, 597, 598, 634, 633
92, 94, 95, 131, 130, 598, 599, 635, 634
93, 95, 96, 132, 131, 599, 600, 636, 635
94, 96, 97, 133, 132, 600, 601, 637, 636
95, 97, 98, 134, 133, 601, 602, 638, 637
96, 98, 99, 135, 134, 602, 603, 639, 638
97, 99, 100, 136, 135, 603, 604, 640, 639
98, 100, 101, 137, 136, 604, 605, 641, 640
99, 101, 102, 138, 137, 605, 606, 642, 641
100, 102, 103, 139, 138, 606, 607, 643, 642
101, 103, 104, 140, 139, 607, 608, 644, 643
102, 104, 105, 141, 140, 608, 609, 645, 644
103, 105, 106, 142, 141, 609, 610, 646, 645
104, 106, 107, 143, 142, 610, 611, 647, 646
105, 107, 108, 144, 143, 611, 612, 648, 647
106, 109, 110, 146, 145, 613, 614, 650, 649
107, 110, 111, 147, 146, 614, 615, 651, 650
108, 111, 112, 148, 147, 615, 616, 652, 651
109, 112, 113, 149, 148, 616, 617, 653, 652
110, 113, 114, 150, 149, 617, 618, 654, 653
111, 114, 115, 151, 150, 618, 619, 655, 654
112, 115, 116, 152, 151, 619, 620, 656, 655
113, 116, 117, 153, 152, 620, 621, 657, 656
114, 117, 118, 154, 153, 621, 622, 658, 657
115, 118, 119, 155, 154, 622, 623, 659, 658
116, 119, 120, 156, 155, 623, 624, 660, 659
117, 120, 121, 157, 156, 624, 625, 661, 660
118, 121, 122, 158, 157, 625, 626, 662, 661
119, 122, 123, 159, 158, 626, 627, 663, 662
120, 123, 124, 160, 159, 627, 628, 664, 663
121, 124, 125, 161, 160, 628, 629, 665, 664
122, 125, 126, 162, 161, 629, 630, 666, 665
123, 126, 127, 163, 162, 630, 631, 667, 666
124, 127, 128, 164, 163, 631, 632, 668, 667
125, 128, 129, 165, 164, 632, 633, 669, 668
126, 129, 130, 166, 165, 633, 634, 670, 669
127, 130, 131, 167, 166, 634, 635, 671, 670
128, 131, 132, 168, 167, 635, 636, 672, 671
129, 132, 133, 169, 168, 636, 637, 673, 672
130, 133, 134, 170, 169, 637, 638, 674, 673
131, 134, 135, 171, 170, 638, 639, 675, 674
132, 135, 136, 172, 171, 639, 640, 676, 675
133, 136, 137, 173, 172, 640, 641, 677, 676
134, 137, 138, 174, 173, 641, 642, 678, 677
135, 138, 139, 175, 174, 642, 643, 679, 678
136, 139, 140, 176, 175, 643, 644, 680, 679
137, 140, 141, 177, 176, 644, 645, 681, 680
138, 141, 142, 178, 177, 645, 646, 682, 681
139, 142, 143, 179, 178, 646, 647, 683, 682
140, 143, 144, 180, 179, 647, 648, 684, 683
141, 145, 146, 182, 181, 649, 650, 686, 685
142, 146, 147, 183, 182, 650, 651, 687, 686
143, 147, 148, 184, 183, 651, 652, 688, 687
144, 148, 149, 185, 184, 652, 653, 689, 688
145, 149, 150, 186, 185, 653, 654, 690, 689
146, 150, 151, 187, 186, 654, 655, 691, 690
147, 151, 152, 188, 187, 655, 656, 692, 691
148, 152, 153, 189, 188, 656, 657, 693, 692
149, 153, 154, 190, 189, 657, 658, 694, 693
150, 154, 155, 191, 190, 658, 659, 695, 694
151, 155, 156, 192, 191, 659, 660, 696, 695
152, 156, 157, 193, 192, 660, 661, 697, 696
153, 157, 158, 194, 193, 661, 662, 698, 697
154, 158, 159, 195, 194, 662, 663, 699, 698
155, 159, 160, 196, 195, 663, 664, 700, 699
156, 160, 161, 197, 196, 664, 665, 701, 700
157, 161, 162, 198, 197, 665, 666, 702, 701
158, 162, 163, 199, 198, 666, 667, 703, 702
159, 163, 164, 200, 199, 667, 668, 704, 703
160, 164, 165, 201, 200, 668, 669, 705, 704
161, 165, 166, 202, 201, 669, 670, 706, 705
162, 166, 167, 203, 202, 670, 671, 707, 706
163, 167, 168, 204, 203, 671, 672, 708, 707
164, 168, 169, 205, 204, 672, 673, 709, 708
165, 169, 170, 206, 205, 673, 674, 710, 709
166, 170, 171, 207, 206, 674, 675, 711, 710
167, 171, 172, 208, 207, 675, 676, 712, 711
168, 172, 173, 209, 208, 676, 677, 713, 712
169, 173, 174, 210, 209, 677, 678, 714, 713
170, 174, 175, 211, 210, 678, 679, 715, 714
171, 175, 176, 212, 211, 679, 680, 716, 715
172, 176, 177, 213, 212, 680, 681, 717, 716
173, 177, 178, 214, 213, 681, 682, 718, 717
174, 178, 179, 215, 214, 682, 683, 719, 718
175, 179, 180, 216, 215, 683, 684, 720, 719
176, 181, 182, 218, 217, 685, 686, 722, 721
177, 182, 183, 219, 218, 686, 687, 723, 722
178, 183, 184, 220, 219, 687, 688, 724, 723
179, 184, 185, 221, 220, 688, 689, 725, 724
180, 185, 186, 222, 221, 689, 690, 726, 725
181, 186, 187, 223, 222, 690, 691, 727, 726
182, 187, 188, 224, 223, 691, 692, 728, 727
183, 188, 189, 225, 224, 692, 693, 729, 728
184, 189, 190, 226, 225, 693, 694, 730, 729
185, 190, 191, 227, 226, 694, 695, 731, 730
186, 191, 192, 228, 227, 695, 696, 732, 731
187, 192, 193, 229, 228, 696, 697, 733, 732
188, 193, 194, 230, 229, 697, 698, 734, 733
189, 194, 195, 231, 230, 698, 699, 735, 734
190, 195, 196, 232, 231, 699, 700, 736, 735
191, 196, 197, 233, 232, 700, 701, 737, 736
192, 197, 198, 234, 233, 701, 702, 738, 737
193, 198, 199, 235, 234, 702, 703, 739, 738
194, 199, 200, 236, 235, 703, 704, 740, 739
195, 200, 201, 237, 236, 704, 705, 741, 740
196, 201, 202, 238, 237, 705, 706, 742, 741
197, 202, 203, 239, 238, 706, 707, 743, 742
198, 203, 204, 240, 239, 707, 708, 744, 743
199, 204, 205, 241, 240, 708, 709, 745, 744
200, 205, 206, 242, 241, 709, 710, 746, 745
201, 206, 207, 243, 242, 710, 711, 747, 746
202, 207, 208, 244, 243, 711, 712, 748, 747
203, 208, 209, 245, 244, 712, 713, 749, 748
204, 209, 210, 246, 245, 713, 714, 750, 749
205, 210, 211, 247, 246, 714, 715, 751, 750
206, 211, 212, 248, 247, 715, 716, 752, 751
207, 212, 213, 249, 248, 716, 717, 753, 752
208, 213, 214, 250, 249, 717, 718, 754, 753
209, 214, 215, 251, 250, 718, 719, 755, 754
210, 215, 216, 252, 251, 719, 720, 756, 755
211, 217, 218, 254, 253, 721, 722, 758, 757
212, 218, 219, 255, 254, 722, 723, 759, 758
213, 219, 220, 256, 255, 723, 724, 760, 759
214, 220, 221, 257, 256, 724, 725, 761, 760
215, 221, 222, 258, 257, 725, 726, 762, 761
216, 222, 223, 259, 258, 726, 727, 763, 762
217, 223, 224, 260, 259, 727, 728, 764, 763
218, 224, 225, 261, 260, 728, 729, 765, 764
219, 225, 226, 262, 261, 729, 730, 766, 765
220, 226, 227, 263, 262, 730, 731, 767, 766
221, 227, 228, 264, 263, 731, 732, 768, 767
222, 228, 229, 265, 264, 732, 733, 769, 768
223, 229, 230, 266, 265, 733, 734, 770, 769
224, 230, 231, 267, 266, 734, 735, 771, 770
225, 231, 232, 268, 267, 735, 736, 772, 771
226, 232, 233, 269, 268, 736, 737, 773, 772
227, 233, 234, 270, 269, 737, 738, 774, 773
228, 234, 235, 271, 270, 738, 739, 775, 774
229, 235, 236, 272, 271, 739, 740, 776, 775
230, 236, 237, 273, 272, 740, 741, 777, 776
231, 237, 238, 274, 273, 741, 742, 778, 777
232, 238, 239, 275, 274, 742, 743, 779, 778
233, 239, 240, 276, 275, 743, 744, 780, 779
234, 240, 241, 277, 276, 744, 745, 781, 780
235, 241, 242, 278, 277, 745, 746, 782, 781
236, 242, 243, 279, 278, 746, 747, 783, 782
237, 243, 244, 280, 279, 747, 748, 784, 783
238, 244, 245, 281, 280, 748, 749, 785, 784
239, 245, 246, 282, 281, 749, 750, 786, 785
240, 246, 247, 283, 282, 750, 751, 787, 786
241, 247, 248, 284, 283, 751, 752, 788, 787
242, 248, 249, 285, 284, 752, 753, 789, 788
243, 249, 250, 286, 285, 753, 754, 790, 789
244, 250, 251, 287, 286, 754, 755, 791, 790
245, 251, 252, 288, 287, 755, 756, 792, 791
246, 253, 254, 290, 289, 757, 758, 794, 793
247, 254, 255, 291, 290, 758, 759, 795, 794
248, 255, 256, 292, 291, 759, 760, 796, 795
249, 256, 257, 293, 292, 760, 761, 797, 796
250, 257, 258, 294, 293, 761, 762, 798, 797
251, 258, 259, 295, 294, 762, 763, 799, 798
252, 259, 260, 296, 295, 763, 764, 800, 799
253, 260, 261, 297, 296, 764, 765, 801, 800
254, 261, 262, 298, 297, 765, 766, 802, 801
255, 262, 263, 299, 298, 766, 767, 803, 802
256, 263, 264, 300, 299, 767, 768, 804, 803
257, 264, 265, 301, 300, 768, 769, 805, 804
258, 265, 266, 302, 301, 769, 770, 806, 805
259, 266, 267, 303, 302, 770, 771, 807, 806
260, 267, 268, 304, 303, 771, 772, 808, 807
261, 268, 269, 305, 304, 772, 773, 809, 808
262, 269, 270, 306, 305, 773, 774, 810, 809
263, 270, 271, 307, 306, 774, 775, 811, 810
264, 271, 272, 308, 307, 775, 776, 812, 811
265, 272, 273, 309, 308, 776, 777, 813, 812
266, 273, 274, 310, 309, 777, 778, 814, 813
267, 274, 275, 311, 310, 778, 779, 815, 814
268, 275, 276, 312, 311, 779, 780, 816, 815
269, 276, 277, 313, 312, 780, 781, 817, 816
270, 277, 278, 314, 313, 781, 782, 818, 817
271, 278, 279, 315, 314, 782, 783, 819, 818
272, 279, 280, 316, 315, 783, 784, 820, 819
273, 280, 281, 317, 316, 784, 785, 821, 820
274, 281, 282, 318, 317, 785, 786, 822, 821
275, 282, 283, 319, 318, 786, 787, 823, 822
276, 283, 284, 320, 319, 787, 788, 824, 823
277, 284, 285, 321, 320, 788, 789, 825, 824
278, 285, 286, 322, 321, 789, 790, 826, 825
279, 286, 287, 323, 322, 790, 791, 827, 826
280, 287, 288, 324, 323, 791, 792, 828, 827
281, 289, 290, 326, 325, 793, 794, 830, 829
282, 290, 291, 327, 326, 794, 795, 831, 830
283, 291, 292, 328, 327, 795, 796, 832, 831
284, 292, 293, 329, 328, 796, 797, 833, 832
285, 293, 294, 330, 329, 797, 798, 834, 833
286, 294, 295, 331, 330, 798, 799, 835, 834
287, 295, 296, 332, 331, 799, 800, 836, 835
288, 296, 297, 333, 332, 800, 801, 837, 836
289, 297, 298, 334, 333, 801, 802, 838, 837
290, 298, 299, 335, 334, 802, 803, 839, 838
291, 299, 300, 336, 335, 803, 804, 840, 839
292, 300, 301, 337, 336, 804, 805, 841, 840
293, 301, 302, 338, 337, 805, 806, 842, 841
294, 302, 303, 339, 338, 806, 807, 843, 842
295, 303, 304, 340, 339, 807, 808, 844, 843
296, 304, 305, 341, 340, 808, 809, 845, 844
297, 305, 306, 342, 341, 809, 810, 846, 845
298, 306, 307, 343, 342, 810, 811, 847, 846
299, 307, 308, 344, 343, 811, 812, 848, 847
300, 308, 309, 345, 344, 812, 813, 849, 848
301, 309, 310, 346, 345, 813, 814, 850, 849
302, 310, 311, 347, 346, 814, 815, 851, 850
303, 311, 312, 348, 347, 815, 816, 852, 851
304, 312, 313, 349, 348, 816, 817, 853, 852
305, 313, 314, 350, 349, 817, 818, 854, 853
306, 314, 315, 351, 350, 818, 819, 855, 854
307, 315, 316, 352, 351, 819, 820, 856, 855
308, 316, 317, 353, 352, 820, 821, 857, 856
309, 317, 318, 354, 353, 821, 822, 858, 857
310, 318, 319, 355, 354, 822, 823, 859, 858
311, 319, 320, 356, 355, 823, 824, 860, 859
312, 320, 321, 357, 356, 824, 825, 861, 860
313, 321, 322, 358, 357, 825, 826, 862, 861
314, 322, 323, 359, 358, 826, 827, 863, 862
315, 323, 324, 360, 359, 827, 828, 864, 863
316, 325, 326, 362, 361, 829, 830, 866, 865
317, 326, 327, 363, 362, 830, 831, 867, 866
318, 327, 328, 364, 363, 831, 832, 868, 867
319, 328, 329, 365, 364, 832, 833, 869, 868
320, 329, 330, 366, 365, 833, 834, 870, 869
321, 330, 331, 367, 366, 834, 835, 871, 870
322, 331, 332, 368, 367, 835, 836, 872, 871
323, 332, 333, 369, 368, 836, 837, 873, 872
324, 333, 334, 370, 369, 837, 838, 874, 873
325, 334, 335, 371, 370, 838, 839, 875, 874
326, 335, 336, 372, 371, 839, 840, 876, 875
327, 336, 337, 373, 372, 840, 841, 877, 876
328, 337, 338, 374, 373, 841, 842, 878, 877
329, 338, 339, 375, 374, 842, 843, 879, 878
330, 339, 340, 376, 375, 843, 844, 880, 879
331, 340, 341, 377, 376, 844, 845, 881, 880
332, 341, 342, 378, 377, 845, 846, 882, 881
333, 342, 343, 379, 378, 846, 847, 883, 882
334, 343, 344, 380, 379, 847, 848, 884, 883
335, 344, 345, 381, 380, 848, 849, 885, 884
336, 345, 346, 382, 381, 849, 850, 886, 885
337, 346, 347, 383, 382, 850, 851, 887, 886
338, 347, 348, 384, 383, 851, 852, 888, 887
339, 348, 349, 385, 384, 852, 853, 889, 888
340, 349, 350, 386, 385, 853, 854, 890, 889
341, 350, 351, 387, 386, 854, 855, 891, 890
342, 351, 352, 388, 387, 855, 856, 892, 891
343, 352, 353, 389, 388, 856, 857, 893, 892
344, 353, 354, 390, 389, 857, 858, 894, 893
345, 354, 355, 391, 390, 858, 859, 895, 894
346, 355, 356, 392, 391, 859, 860, 896, 895
347, 356, 357, 393, 392, 860, 861, 897, 896
348, 357, 358, 394, 393, 861, 862, 898, 897
349, 358, 359, 395, 394, 862, 863, 899, 898
350, 359, 360, 396, 395, 863, 864, 900, 899
351, 361, 362, 398, 397, 865, 866, 902, 901
352, 362, 363, 399, 398, 866, 867, 903, 902
353, 363, 364, 400, 399, 867, 868, 904, 903
354, 364, 365, 401, 400, 868, 869, 905, 904
355, 365, 366, 402, 401, 869, 870, 906, 905
356, 366, 367, 403, 402, 870, 871, 907, 906
357, 367, 368, 404, 403, 871, 872, 908, 907
358, 368, 369, 405, 404, 872, 873, 909, 908
359, 369, 370, 406, 405, 873, 874, 910, 909
360, 370, 371, 407, 406, 874, 875, 911, 910
361, 371, 372, 408, 407, 875, 876, 912, 911
362, 372, 373, 409, 408, 876, 877, 913, 912
363, 373, 374, 410, 409, 877, 878, 914, 913
364, 374, 375, 411, 410, 878, 879, 915, 914
365, 375, 376, 412, 411, 879, 880, 916, 915
366, 376, 377, 413, 412, 880, 881, 917, 916
367, 377, 378, 414, 413, 881, 882, 918, 917
368, 378, 379, 415, 414, 882, 883, 919, 918
369, 379, 380, 416, 415, 883, 884, 920, 919
370, 380, 381, 417, 416, 884, 885, 921, 920
371, 381, 382, 418, 417, 885, 886, 922, 921
372, 382, 383, 419, 418, 886, 887, 923, 922
373, 383, 384, 420, 419, 887, 888, 924, 923
374, 384, 385, 421, 420, 888, 889, 925, 924
375, 385, 386, 422, 421, 889, 890, 926, 925
376, 386, 387, 423, 422, 890, 891, 927, 926
377, 387, 388, 424, 423, 891, 892, 928, 927
378, 388, 389, 425, 424, 892, 893, 929, 928
379, 389, 390, 426, 425, 893, 894, 930, 929
380, 390, 391, 427, 426, 894, 895, 931, 930
381, 391, 392, 428, 427, 895, 896, 932, 931
382, 392, 393, 429, 428, 896, 897, 933, 932
383, 393, 394, 430, 429, 897, 898, 934, 933
384, 394, 395, 431, 430, 898, 899, 935, 934
385, 395, 396, 432, 431, 899, 900, 936, 935
386, 397, 398, 434, 433, 901, 902, 938, 937
387, 398, 399, 435, 434, 902, 903, 939, 938
388, 399, 400, 436, 435, 903, 904, 940, 939
389, 400, 401, 437, 436, 904, 905, 941, 940
390, 401, 402, 438, 437, 905, 906, 942, 941
391, 402, 403, 439, 438, 906, 907, 943, 942
392, 403, 404, 440, 439, 907, 908, 944, 943
393, 404, 405, 441, 440, 908, 909, 945, 944
394, 405, 406, 442, 441, 909, 910, 946, 945
395, 406, 407, 443, 442, 910, 911, 947, 946
396, 407, 408, 444, 443, 911, 912, 948, 947
397, 408, 409, 445, 444, 912, 913, 949, 948
398, 409, 410, 446, 445, 913, 914, 950, 949
399, 410, 411, 447, 446, 914, 915, 951, 950
400, 411, 412, 448, 447, 915, 916, 952, 951
401, 412, 413, 449, 448, 916, 917, 953, 952
402, 413, 414, 450, 449, 917, 918, 954, 953
403, 414, 415, 451, 450, 918, 919, 955, 954
404, 415, 416, 452, 451, 919, 920, 956, 955
405, 416, 417, 453, 452, 920, 921, 957, 956
406, 417, 418, 454, 453, 921, 922, 958, 957
407, 418, 419, 455, 454, 922, 923, 959, 958
408, 419, 420, 456, 455, 923, 924, 960, 959
409, 420, 421, 457, 456, 924, 925, 961, 960
410, 421, 422, 458, 457, 925, 926, 962, 961
411, 422, 423, 459, 458, 926, 927, 963, 962
412, 423, 424, 460, 459, 927, 928, 964, 963
413, 424, 425, 461, 460, 928, 929, 965, 964
414, 425, 426, 462, 461, 929, 930, 966, 965
415, 426, 427, 463, 462, 930, 931, 967, 966
416, 427, 428, 464, 463, 931, 932, 968, 967
417, 428, 429, 465, 464, 932, 933, 969, 968
418, 429, 430, 466, 465, 933, 934, 970, 969
419, 430, 431, 467, 466, 934, 935, 971, 970
420, 431, 432, 468, 467, 935, 936, 972, 971
421, 433, 434, 470, 469, 937, 938, 974, 973
422, 434, 435, 471, 470, 938, 939, 975, 974
423, 435, 436, 472, 471, 939, 940, 976, 975
424, 436, 437, 473, 472, 940, 941, 977, 976
425, 437, 438, 474, 473, 941, 942, 978, 977
426, 438, 439, 475, 474, 942, 943, 979, 978
427, 439, 440, 476, 475, 943, 944, 980, 979
428, 440, 441, 477, 476, 944, 945, 981, 980
429, 441, 442, 478, 477, 945, 946, 982, 981
430, 442, 443, 479, 478, 946, 947, 983, 982
431, 443, 444, 480, 479, 947, 948, 984, 983
432, 444, 445, 481, 480, 948, 949, 985, 984
433, 445, 446, 482, 481, 949, 950, 986, 985
434, 446, 447, 483, 482, 950, 951, 987, 986
435, 447, 448, 484, 483, 951, 952, 988, 987
436, 448, 449, 485, 484, 952, 953, 989, 988
437, 449, 450, 486, 485, 953, 954, 990, 989
438, 450, 451, 487, 486, 954, 955, 991, 990
439, 451, 452, 488, 487, 955, 956, 992, 991
440, 452, 453, 489, 488, 956, 957, 993, 992
441, 453, 454, 490, 489, 957, 958, 994, 993
442, 454, 455, 491, 490, 958, 959, 995, 994
443, 455, 456, 492, 491, 959, 960, 996, 995
444, 456, 457, 493, 492, 960, 961, 997, 996
445, 457, 458, 494, 493, 961, 962, 998, 997
446, 458, 459, 495, 494, 962, 963, 999, 998
447, 459, 460, 496, 495, 963, 964, 1000, 999
448, 460, 461, 497, 496, 964, 965, 1001, 1000
449, 461, 462, 498, 497, 965, 966, 1002, 1001
450, 462, 463, 499, 498, 966, 967, 1003, 1002
451, 463, 464, 500, 499, 967, 968, 1004, 1003
452, 464, 465, 501, 500, 968, 969, 1005, 1004
453, 465, 466, 502, 501, 969, 970, 1006, 1005
454, 466, 467, 503, 502, 970, 971, 1007, 1006
455, 467, 468, 504, 503, 971, 972, 1008, 1007
456, 505, 506, 542, 541, 1009, 1010, 1046, 1045
457, 506, 507, 543, 542, 1010, 1011, 1047, 1046
458, 507, 508, 544, 543, 1011, 1012, 1048, 1047
459, 508, 509, 545, 544, 1012, 1013, 1049, 1048
460, 509, 510, 546, 545, 1013, 1014, 1050, 1049
461, 510, 511, 547, 546, 1014, 1015, 1051, 1050
462, 511, 512, 548, 547, 1015, 1016, 1052, 1051
463, 512, 513, 549, 548, 1016, 1017, 1053, 1052
464, 513, 514, 550, 549, 1017, 1018, 1054, 1053
465, 514, 515, 551, 550, 1018, 1019, 1055, 1054
466, 515, 516, 552, 551, 1019, 1020, 1056, 1055
467, 516, 517, 553, 552, 1020, 1021, 1057, 1056
468, 517, 518, 554, 553, 1021, 1022, 1058, 1057
469, 518, 519, 555, 554, 1022, 1023, 1059, 1058
470, 519, 520, 556, 555, 1023, 1024, 1060, 1059
471, 520, 521, 557, 556, 1024, 1025, 1061, 1060
472, 521, 522, 558, 557, 1025, 1026, 1062, 1061
473, 522, 523, 559, 558, 1026, 1027, 1063, 1062
474, 523, 524, 560, 559, 1027, 1028, 1064, 1063
475, 524, 525, 561, 560, 1028, 1029, 1065, 1064
476, 525, 526, 562, 561, 1029, 1030, 1066, 1065
477, 526, 527, 563, 562, 1030, 1031, 1067, 1066
478, 527, 528, 564, 563, 1031, 1032, 1068, 1067
479, 528, 529, 565, 564, 1032, 1033, 1069, 1068
480, 529, 530, 566, 565, 1033, 1034, 1070, 1069
481, 530, 531, 567, 566, 1034, 1035, 1071, 1070
482, 531, 532, 568, 567, 1035, 1036, 1072, 1071
483, 532, 533, 569, 568, 1036, 1037, 1073, 1072
484, 533, 534, 570, 569, 1037, 1038, 1074, 1073
485, 534, 535, 571, 570, 1038, 1039, 1075, 1074
486, 535, 536, 572, 571, 1039, 1040, 1076, 1075
487, 536, 537, 573, 572, 1040, 1041, 1077, 1076
488, 537, 538, 574, 573, 1041, 1042, 1078, 1077
489, 538, 539, 575, 574, 1042, 1043, 1079, 1078
490, 539, 540, 576, 575, 1043, 1044, 1080, 1079
491, 541, 542, 578, 577, 1045, 1046, 1082, 1081
492, 542, 543, 579, 578, 1046, 1047, 1083, 1082
493, 543, 544, 580, 579, 1047, 1048, 1084, 1083
494, 544, 545, 581, 580, 1048, 1049, 1085, 1084
495, 545, 546, 582, 581, 1049, 1050, 1086, 1085
496, 546, 547, 583, 582, 1050, 1051, 1087, 1086
497, 547, 548, 584, 583, 1051, 1052, 1088, 1087
498, 548, 549, 585, 584, 1052, 1053, 1089, 1088
499, 549, 550, 586, 585, 1053, 1054, 1090, 1089
500, 550, 551, 587, 586, 1054, 1055, 1091, 1090
501, 551, 552, 588, 587, 1055, 1056, 1092, 1091
502, 552, 553, 589, 588, 1056, 1057, 1093, 1092
503, 553, 554, 590, 589, 1057, 1058, 1094, 1093
504, 554, 555, 591, 590, 1058, 1059, 1095, 1094
505, 555, 556, 592, 591, 1059, 1060, 1096, 1095
506, 556, 557, 593, 592, 1060, 1061, 1097, 1096
507, 557, 558, 594, 593, 1061, 1062, 1098, 1097
508, 558, 559, 595, 594, 1062, 1063, 1099, 1098
509, 559, 560, 596, 595, 1063, 1064, 1100, 1099
510, 560, 561, 597, 596, 1064, 1065, 1101, 1100
511, 561, 562, 598, 597, 1065, 1066, 1102, 1101
512, 562, 563, 599, 598, 1066, 1067, 1103, 1102
513, 563, 564, 600, 599, 1067, 1068, 1104, 1103
514, 564, 565, 601, 600, 1068, 1069, 1105, 1104
515, 565, 566, 602, 601, 1069, 1070, 1106, 1105
516, 566, 567, 603, 602, 1070, 1071, 1107, 1106
517, 567, 568, 604, 603, 1071, 1072, 1108, 1107
518, 568, 569, 605, 604, 1072, 1073, 1109, 1108
519, 569, 570, 606, 605, 1073, 1074, 1110, 1109
520, 570, 571, 607, 606, 1074, 1075, 1111, 1110
521, 571, 572, 608, 607, 1075, 1076, 1112, 1111
522, 572, 573, 609, 608, 1076, 1077, 1113, 1112
523, 573, 574, 610, 609, 1077, 1078, 1114, 1113
524, 574, 575, 611, 610, 1078, 1079, 1115, 1114
525, 575, 576, 612, 611, 1079, 1080, 1116, 1115
526, 577, 578, 614, 613, 1081, 1082, 1118, 1117
527, 578, 579, 615, 614, 1082, 1083, 1119, 1118
528, 579, 580, 616, 615, 1083, 1084, 1120, 1119
529, 580, 581, 617, 616, 1084, 1085, 1121, 1120
530, 581, 582, 618, 617, 1085, 1086, 1122, 1121
531, 582, 583, 619, 618, 1086, 1087, 1123, 1122
532, 583, 584, 620, 619, 1087, 1088, 1124, 1123
533, 584, 585, 621, 620, 1088, 1089, 1125, 1124
534, 585, 586, 622, 621, 1089, 1090, 1126, 1125
535, 586, 587, 623, 622, 1090, 1091, 1127, 1126
536, 587, 588, 624, 623, 1091, 1092, 1128, 1127
537, 588, 589, 625, 624, 1092, 1093, 1129, 1128
538, 589, 590, 626, 625, 1093, 1094, 1130, 1129
539, 590, 591, 627, 626, 1094, 1095, 1131, 1130
540, 591, 592, 628, 627, 1095, 1096, 1132, 1131
541, 592, 593, 629, 628, 1096, 1097, 1133, 1132
542, 593, 594, 630, 629, 1097, 1098, 1134, 1133
543, 594, 595, 631, 630, 1098, 1099, 1135, 1134
544, 595, 596, 632, 631, 1099, 1100, 1136, 1135
545, 596, 597, 633, 632, 1100, 1101, 1137, 1136
546, 597, 598, 634, 633, 1101, 1102, 1138, 1137
547, 598, 599, 635, 634, 1102, 1103, 1139, 1138
548, 599, 600, 636, 635, 1103, 1104, 1140, 1139
549, 600, 601, 637, 636, 1104, 1105, 1141, 1140
550, 601, 602, 638, 637, 1105, 1106, 1142, 1141
551, 602, 603, 639, 638, 1106, 1107, 1143, 1142
552, 603, 604, 640, 639, 1107, 1108, 1144, 1143
553, 604, 605, 641, 640, 1108, 1109, 1145, 1144
554, 605, 606, 642, 641, 1109, 1110, 1146, 1145
555, 606, 607, 643, 642, 1110, 1111, 1147, 1146
556, 607, 608, 644, 643, 1111, 1112, 1148, 1147
557, 608, 609, 645, 644, 1112, 1113, 1149, 1148
558, 609, 610, 646, 645, 1113, 1114, 1150, 1149
559, 610, 611, 647, 646, 1114, 1115, 1151, 1150
560, 611, 612, 648, 647, 1115, 1116, 1152, 1151
561, 613, 614, 650, 649, 1117, 1118, 1154, 1153
562, 614, 615, 651, 650, 1118, 1119, 1155, 1154
563, 615, 616, 652, 651, 1119, 1120, 1156, 1155
564, 616, 617, 653, 652, 1120, 1121, 1157, 1156
565, 617, 618, 654, 653, 1121, 1122, 1158, 1157
566, 618, 619, 655, 654, 1122, 1123, 1159, 1158
567, 619, 620, 656, 655, 1123, 1124, 1160, 1159
568, 620, 621, 657, 656, 1124, 1125, 1161, 1160
569, 621, 622, 658, 657, 1125, 1126, 1162, 1161
570, 622, 623, 659, 658, 1126, 1127, 1163, 1162
571, 623, 624, 660, 659, 1127, 1128, 1164, 1163
572, 624, 625, 661, 660, 1128, 1129, 1165, 1164
573, 625, 626, 662, 661, 1129, 1130, 1166, 1165
574, 626, 627, 663, 662, 1130, 1131, 1167, 1166
575, 627, 628, 664, 663, 1131, 1132, 1168, 1167
576, 628, 629, 665, 664, 1132, 1133, 1169, 1168
577, 629, 630, 666, 665, 1133, 1134, 1170, 1169
578, 630, 631, 667, 666, 1134, 1135, 1171, 1170
579, 631, 632, 668, 667, 1135, 1136, 1172, 1171
580, 632, 633, 669, 668, 1136, 1137, 1173, 1172
581, 633, 634, 670, 669, 1137, 1138, 1174, 1173
582, 634, 635, 671, 670, 1138, 1139, 1175, 1174
583, 635, 636, 672, 671, 1139, 1140, 1176, 1175
584, 636, 637, 673, 672, 1140, 1141, 1177, 1176
585, 637, 638, 674, 673, 1141, 1142, 1178, 1177
586, 638, 639, 675, 674, 1142, 1143, 1179, 1178
587, 639, 640, 676, 675, 1143, 1144, 1180, 1179
588, 640, 641, 677, 676, 1144, 1145, 1181, 1180
589, 641, 642, 678, 677, 1145, 1146, 1182, 1181
590, 642, 643, 679, 678, 1146, 1147, 1183, 1182
591, 643, 644, 680, 679, 1147, 1148, 1184, 1183
592, 644, 645, 681, 680, 1148, 1149, 1185, 1184
593, 645, 646, 682, 681, 1149, 1150, 1186, 1185
594, 646, 647, 683, 682, 1150, 1151, 1187, 1186
595, 647, 648, 684, 683, 1151, 1152, 1188, 1187
596, 649, 650, 686, 685, 1153, 1154, 1190, 1189
597, 650, 651, 687, 686, 1154, 1155, 1191, 1190
598, 651, 652, 688, 687, 1155, 1156, 1192, 1191
599, 652, 653, 689, 688, 1156, 1157, 1193, 1192
600, 653, 654, 690, 689, 1157, 1158, 1194, 1193
601, 654, 655, 691, 690, 1158, 1159, 1195, 1194
602, 655, 656, 692, 691, 1159, 1160, 1196, 1195
603, 656, 657, 693, 692, 1160, 1161, 1197, 1196
604, 657, 658, 694, 693, 1161, 1162, 1198, 1197
605, 658, 659, 695, 694, 1162, 1163, 1199, 1198
606, 659, 660, 696, 695, 1163, 1164, 1200, 1199
607, 660, 661, 697, 696, 1164, 1165, 1201, 1200
608, 661, 662, 698, 697, 1165, 1166, 1202, 1201
609, 662, 663, 699, 698, 1166, 1167, 1203, 1202
610, 663, 664, 700, 699, 1167, 1168, 1204, 1203
611, 664, 665, 701, 700, 1168, 1169, 1205, 1204
612, 665, 666, 702, 701, 1169, 1170, 1206, 1205
613, 666, 667, 703, 702, 1170, 1171, 1207, 1206
614, 667, 668, 704, 703, 1171, 1172, 1208, 1207
615, 668, 669, 705, 704, 1172, 1173, 1209, 1208
616, 669, 670, 706, 705, 1173, 1174, 1210, 1209
617, 670, 671, 707, 706, 1174, 1175, 1211, 1210
618, 671, 672, 708, 707, 1175, 1176, 1212, 1211
619, 672, 673, 709, 708, 1176, 1177, 1213, 1212
620, 673, 674, 710, 709, 1177, 1178, 1214, 1213
621, 674, 675, 711, 710, 1178, 1179, 1215, 1214
622, 675, 676, 712, 711, 1179, 1180, 1216, 1215
623, 676, 677, 713, 712, 1180, 1181, 1217, 1216
624, 677, 678, 714, 713, 1181, 1182, 1218, 1217
625, 678, 679, 715, 714, 1182, 1183, 1219, 1218
626, 679, 680, 716, 715, 1183, 1184, 1220, 1219
627, 680, 681, 717, 716, 1184, 1185, 1221, 1220
628, 681, 682, 718, 717, 1185, 1186, 1222, 1221
629, 682, 683, 719, 718, 1186, 1187, 1223, 1222
630, 683, 684, 720, 719, 1187, 1188, 1224, 1223
631, 685, 686, 722, 721, 1189, 1190, 1226, 1225
632, 686, 687, 723, 722, 1190, 1191, 1227, 1226
633, 687, 688, 724, 723, 1191, 1192, 1228, 1227
634, 688, 689, 725, 724, 1192, 1193, 1229, 1228
635, 689, 690, 726, 725, 1193, 1194, 1230, 1229
636, 690, 691, 727, 726, 1194, 1195, 1231, 1230
637, 691, 692, 728, 727, 1195, 1196, 1232, 1231
638, 692, 693, 729, 728, 1196, 1197, 1233, 1232
639, 693, 694, 730, 729, 1197, 1198, 1234, 1233
640, 694, 695, 731, 730, 1198, 1199, 1235, 1234
641, 695, 696, 732, 731, 1199, 1200, 1236, 1235
642, 696, 697, 733, 732, 1200, 1201, 1237, 1236
643, 697, 698, 734, 733, 1201, 1202, 1238, 1237
644, 698, 699, 735, 734, 1202, 1203, 1239, 1238
645, 699, 700, 736, 735, 1203, 1204, 1240, 1239
646, 700, 701, 737, 736, 1204, 1205, 1241, 1240
647, 701, 702, 738, 737, 1205, 1206, 1242, 1241
648, 702, 703, 739, 738, 1206, 1207, 1243, 1242
649, 703, 704, 740, 739, 1207, 1208, 1244, 1243
650, 704, 705, 741, 740, 1208, 1209, 1245, 1244
651, 705, 706, 742, 741, 1209, 1210, 1246, 1245
652, 706, 707, 743, 742, 1210, 1211, 1247, 1246
653, 707, 708, 744, 743, 1211, 1212, 1248, 1247
654, 708, 709, 745, 744, 1212, 1213, 1249, 1248
655, 709, 710, 746, 745, 1213, 1214, 1250, 1249
656, 710, 711, 747, 746, 1214, 1215, 1251, 1250
657, 711, 712, 748, 747, 1215, 1216, 1252, 1251
658, 712, 713, 749, 748, 1216, 1217, 1253, 1252
659, 713, 714, 750, 749, 1217, 1218, 1254, 1253
660, 714, 715, 751, 750, 1218, 1219, 1255, 1254
661, 715, 716, 752, 751, 1219, 1220, 1256, 1255
662, 716, 717, 753, 752, 1220, 1221, 1257, 1256
663, 717, 718, 754, 753, 1221, 1222, 1258, 1257
664, 718, 719, 755, 754, 1222, 1223, 1259, 1258
665, 719, 720, 756, 755, 1223, 1224, 1260, 1259
666, 721, 722, 758, 757, 1225, 1226, 1262, 1261
667, 722, 723, 759, 758, 1226, 1227, 1263, 1262
668, 723, 724, 760, 759, 1227, 1228, 1264, 1263
669, 724, 725, 761, 760, 1228, 1229, 1265, 1264
670, 725, 726, 762, 761, 1229, 1230, 1266, 1265
671, 726, 727, 763, 762, 1230, 1231, 1267, 1266
672, 727, 728, 764, 763, 1231, 1232, 1268, 1267
673, 728, 729, 765, 764, 1232, 1233, 1269, 1268
674, 729, 730, 766, 765, 1233, 1234, 1270, 1269
675, 730, 731, 767, 766, 1234, 1235, 1271, 1270
676, 731, 732, 768, 767, 1235, 1236, 1272, 1271
677, 732, 733, 769, 768, 1236, 1237, 1273, 1272
678, 733, 734, 770, 769, 1237, 1238, 1274, 1273
679, 734, 735, 771, 770, 1238, 1239, 1275, 1274
680, 735, 736, 772, 771, 1239, 1240, 1276, 1275
681, 736, 737, 773, 772, 1240, 1241, 1277, 1276
682, 737, 738, 774, 773, 1241, 1242, 1278, 1277
683, 738, 739, 775, 774, 1242, 1243, 1279, 1278
684, 739, 740, 776, 775, 1243, 1244, 1280, 1279
685, 740, 741, 777, 776, 1244, 1245, 1281, 1280
686, 741, 742, 778, 777, 1245, 1246, 1282, 1281
687, 742, 743, 779, 778, 1246, 1247, 1283, 1282
688, 743, 744, 780, 779, 1247, 1248, 1284, 1283
689, 744, 745, 781, 780, 1248, 1249, 1285, 1284
690, 745, 746, 782, 781, 1249, 1250, 1286, 1285
691, 746, 747, 783, 782, 1250, 1251, 1287, 1286
692, 747, 748, 784, 783, 1251, 1252, 1288, 1287
693, 748, 749, 785, 784, 1252, 1253, 1289, 1288
694, 749, 750, 786, 785, 1253, 1254, 1290, 1289
695, 750, 751, 787, 786, 1254, 1255, 1291, 1290
696, 751, 752, 788, 787, 1255, 1256, 1292, 1291
697, 752, 753, 789, 788, 1256, 1257, 1293, 1292
698, 753, 754, 790, 789, 1257, 1258, 1294, 1293
699, 754, 755, 791, 790, 1258, 1259, 1295, 1294
700, 755, 756, 792, 791, 1259, 1260, 1296, 1295
701, 757, 758, 794, 793, 1261, 1262, 1298, 1297
702, 758, 759, 795, 794, 1262, 1263, 1299, 1298
703, 759, 760, 796, 795, 1263, 1264, 1300, 1299
704, 760, 761, 797, 796, 1264, 1265, 1301, 1300
705, 761, 762, 798, 797, 1265, 1266, 1302, 1301
706, 762, 763, 799, 798, 1266, 1267, 1303, 1302
707, 763, 764, 800, 799, 1267, 1268, 1304, 1303
708, 764, 765, 801, 800, 1268, 1269, 1305, 1304
709, 765, 766, 802, 801, 1269, 1270, 1306, 1305
710, 766, 767, 803, 802, 1270, 1271, 1307, 1306
711, 767, 768, 804, 803, 1271, 1272, 1308, 1307
712, 768, 769, 805, 804, 1272, 1273, 1309, 1308
713, 769, 770, 806, 805, 1273, 1274, 1310, 1309
714, 770, 771, 807, 806, 1274, 1275, 1311, 1310
715, 771, 772, 808, 807, 1275, 1276, 1312, 1311
716, 772, 773, 809, 808, 1276, 1277, 1313, 1312
717, 773, 774, 810, 809, 1277, 1278, 1314, 1313
718, 774, 775, 811, 810, 1278, 1279, 1315, 1314
719, 775, 776, 812, 811, 1279, 1280, 1316, 1315
720, 776, 777, 813, 812, 1280, 1281, 1317, 1316
721, 777, 778, 814, 813, 1281, 1282, 1318, 1317
722, 778, 779, 815, 814, 1282, 1283, 1319, 1318
723, 779, 780, 816, 815, 1283, 1284, 1320, 1319
724, 780, 781, 817, 816, 1284, 1285, 1321, 1320
725, 781, 782, 818, 817, 1285, 1286, 1322, 1321
726, 782, 783, 819, 818, 1286, 1287, 1323, 1322
727, 783, 784, 820, 819, 1287, 1288, 1324, 1323
728, 784, 785, 821, 820, 1288, 1289, 1325, 1324
729, 785, 786, 822, 821, 1289, 1290, 1326, 1325
730, 786, 787, 823, 822, 1290, 1291, 1327, 1326
731, 787, 788, 824, 823, 1291, 1292, 1328, 1327
732, 788, 789, 825, 824, 1292, 1293, 1329, 1328
733, 789, 790, 826, 825, 1293, 1294, 1330, 1329
734, 790, 791, 827, 826, 1294, 1295, 1331, 1330
735, 791, 792, 828, 827, 1295, 1296, 1332, 1331
736, 793, 794, 830, 829, 1297, 1298, 1334, 1333
737, 794, 795, 831, 830, 1298, 1299, 1335, 1334
738, 795, 796, 832, 831, 1299, 1300, 1336, 1335
739, 796, 797, 833, 832, 1300, 1301, 1337, 1336
740, 797, 798, 834, 833, 1301, 1302, 1338, 1337
741, 798, 799, 835, 834, 1302, 1303, 1339, 1338
742, 799, 800, 836, 835, 1303, 1304, 1340, 1339
743, 800, 801, 837, 836, 1304, 1305, 1341, 1340
744, 801, 802, 838, 837, 1305, 1306, 1342, 1341
745, 802, 803, 839, 838, 1306, 1307, 1343, 1342
746, 803, 804, 840, 839, 1307, 1308, 1344, 1343
747, 804, 805, 841, 840, 1308, 1309, 1345, 1344
748, 805, 806, 842, 841, 1309, 1310, 1346, 1345
749, 806, 807, 843, 842, 1310, 1311, 1347, 1346
750, 807, 808, 844, 843, 1311, 1312, 1348, 1347
751, 808, 809, 845, 844, 1312, 1313, 1349, 1348
752, 809, 810, 846, 845, 1313, 1314, 1350, 1349
753, 810, 811, 847, 846, 1314, 1315, 1351, 1350
754, 811, 812, 848, 847, 1315, 1316, 1352, 1351
755, 812, 813, 849, 848, 1316, 1317, 1353, 1352
756, 813, 814, 850, 849, 1317, 1318, 1354, 1353
757, 814, 815, 851, 850, 1318, 1319, 1355, 1354
758, 815, 816, 852, 851, 1319, 1320, 1356, 1355
759, 816, 817, 853, 852, 1320, 1321, 1357, 1356
760, 817, 818, 854, 853, 1321, 1322, 1358, 1357
761, 818, 819, 855, 854, 1322, 1323, 1359, 1358
762, 819, 820, 856, 855, 1323, 1324, 1360, 1359
763, 820, 821, 857, 856, 1324, 1325, 1361, 1360
764, 821, 822, 858, 857, 1325, 1326, 1362, 1361
765, 822, 823, 859, 858, 1326, 1327, 1363, 1362
766, 823, 824, 860, 859, 1327, 1328, 1364, 1363
767, 824, 825, 861, 860, 1328, 1329, 1365, 1364
768, 825, 826, 862, 861, 1329, 1330, 1366, 1365
769, 826, 827, 863, 862, 1330, 1331, 1367, 1366
770, 827, 828, 864, 863, 1331, 1332, 1368, 1367
771, 829, 830, 866, 865, 1333, 1334, 1370, 1369
772, 830, 831, 867, 866, 1334, 1335, 1371, 1370
773, 831, 832, 868, 867, 1335, 1336, 1372, 1371
774, 832, 833, 869, 868, 1336, 1337, 1373, 1372
775, 833, 834, 870, 869, 1337, 1338, 1374, 1373
776, 834, 835, 871, 870, 1338, 1339, 1375, 1374
777, 835, 836, 872, 871, 1339, 1340, 1376, 1375
778, 836, 837, 873, 872, 1340, 1341, 1377, 1376
779, 837, 838, 874, 873, 1341, 1342, 1378, 1377
780, 838, 839, 875, 874, 1342, 1343, 1379, 1378
781, 839, 840, 876, 875, 1343, 1344, 1380, 1379
782, 840, 841, 877, 876, 1344, 1345, 1381, 1380
783, 841, 842, 878, 877, 1345, 1346, 1382, 1381
784, 842, 843, 879, 878, 1346, 1347, 1383, 1382
785, 843, 844, 880, 879, 1347, 1348, 1384, 1383
786, 844, 845, 881, 880, 1348, 1349, 1385, 1384
787, 845, 846, 882, 881, 1349, 1350, 1386, 1385
788, 846, 847, 883, 882, 1350, 1351, 1387, 1386
789, 847, 848, 884, 883, 1351, 1352, 1388, 1387
790, 848, 849, 885, 884, 1352, 1353, 1389, 1388
791, 849, 850, 886, 885, 1353, 1354, 1390, 1389
792, 850, 851, 887, 886, 1354, 1355, 1391, 1390
793, 851, 852, 888, 887, 1355, 1356, 1392, 1391
794, 852, 853, 889, 888, 1356, 1357, 1393, 1392
795, 853, 854, 890, 889, 1357, 1358, 1394, 1393
796, 854, 855, 891, 890, 1358, 1359, 1395, 1394
797, 855, 856, 892, 891, 1359, 1360, 1396, 1395
798, 856, 857, 893, 892, 1360, 1361, 1397, 1396
799, 857, 858, 894, 893, 1361, 1362, 1398, 1397
800, 858, 859, 895, 894, 1362, 1363, 1399, 1398
801, 859, 860, 896, 895, 1363, 1364, 1400, 1399
802, 860, 861, 897, 896, 1364, 1365, 1401, 1400
803, 861, 862, 898, 897, 1365, 1366, 1402, 1401
804, 862, 863, 899, 898, 1366, 1367, 1403, 1402
805, 863, 864, 900, 899, 1367, 1368, 1404, 1403
806, 865, 866, 902, 901, 1369, 1370, 1406, 1405
807, 866, 867, 903, 902, 1370, 1371, 1407, 1406
808, 867, 868, 904, 903, 1371, 1372, 1408, 1407
809, 868, 869, 905, 904, 1372, 1373, 1409, 1408
810, 869, 870, 906, 905, 1373, 1374, 1410, 1409
811, 870, 871, 907, 906, 1374, 1375, 1411, 1410
812, 871, 872, 908, 907, 1375, 1376, 1412, 1411
813, 872, 873, 909, 908, 1376, 1377, 1413, 1412
814, 873, 874, 910, 909, 1377, 1378, 1414, 1413
815, 874, 875, 911, 910, 1378, 1379, 1415, 1414
816, 875, 876, 912, 911, 1379, 1380, 1416, 1415
817, 876, 877, 913, 912, 1380, 1381, 1417, 1416
818, 877, 878, 914, 913, 1381, 1382, 1418, 1417
819, 878, 879, 915, 914, 1382, 1383, 1419, 1418
820, 879, 880, 916, 915, 1383, 1384, 1420, 1419
821, 880, 881, 917, 916, 1384, 1385, 1421, 1420
822, 881, 882, 918, 917, 1385, 1386, 1422, 1421
823, 882, 883, 919, 918, 1386, 1387, 1423, 1422
824, 883, 884, 920, 919, 1387, 1388, 1424, 1423
825, 884, 885, 921, 920, 1388, 1389, 1425, 1424
826, 885, 886, 922, 921, 1389, 1390, 1426, 1425
827, 886, 887, 923, 922, 1390, 1391, 1427, 1426
828, 887, 888, 924, 923, 1391, 1392, 1428, 1427
829, 888, 889, 925, 924, 1392, 1393, 1429, 1428
830, 889, 890, 926, 925, 1393, 1394, 1430, 1429
831, 890, 891, 927, 926, 1394, 1395, 1431, 1430
832, 891, 892, 928, 927, 1395, 1396, 1432, 1431
833, 892, 893, 929, 928, 1396, 1397, 1433, 1432
834, 893, 894, 930, 929, 1397, 1398, 1434, 1433
835, 894, 895, 931, 930, 1398, 1399, 1435, 1434
836, 895, 896, 932, 931, 1399, 1400, 1436, 1435
837, 896, 897, 933, 932, 1400, 1401, 1437, 1436
838, 897, 898, 934, 933, 1401, 1402, 1438, 1437
839, 898, 899, 935, 934, 1402, 1403, 1439, 1438
840, 899, 900, 936, 935, 1403, 1404, 1440, 1439
841, 901, 902, 938, 937, 1405, 1406, 1442, 1441
842, 902, 903, 939, 938, 1406, 1407, 1443, 1442
843, 903, 904, 940, 939, 1407, 1408, 1444, 1443
844, 904, 905, 941, 940, 1408, 1409, 1445, 1444
845, 905, 906, 942, 941, 1409, 1410, 1446, 1445
846, 906, 907, 943, 942, 1410, 1411, 1447, 1446
847, 907, 908, 944, 943, 1411, 1412, 1448, 1447
848, 908, 909, 945, 944, 1412, 1413, 1449, 1448
849, 909, 910, 946, 945, 1413, 1414, 1450, 1449
850, 910, 911, 947, 946, 1414, 1415, 1451, 1450
851, 911, 912, 948, 947, 1415, 1416, 1452, 1451
852, 912, 913, 949, 948, 1416, 1417, 1453, 1452
853, 913, 914, 950, 949, 1417, 1418, 1454, 1453
854, 914, 915, 951, 950, 1418, 1419, 1455, 1454
855, 915, 916, 952, 951, 1419, 1420, 1456, 1455
856, 916, 917, 953, 952, 1420, 1421, 1457, 1456
857, 917, 918, 954, 953, 1421, 1422, 1458, 1457
858, 918, 919, 955, 954, 1422, 1423, 1459, 1458
859, 919, 920, 956, 955, 1423, 1424, 1460, 1459
860, 920, 921, 957, 956, 1424, 1425, 1461, 1460
861, 921, 922, 958, 957, 1425, 1426, 1462, 1461
862, 922, 923, 959, 958, 1426, 1427, 1463, 1462
863, 923, 924, 960, 959, 1427, 1428, 1464, 1463
864, 924, 925, 961, 960, 1428, 1429, 1465, 1464
865, 925, 926, 962, 961, 1429, 1430, 1466, 1465
866, 926, 927, 963, 962, 1430, 1431, 1467, 1466
867, 927, 928, 964, 963, 1431, 1432, 1468, 1467
868, 928, 929, 965, 964, 1432, 1433, 1469, 1468
869, 929, 930, 966, 965, 1433, 1434, 1470, 1469
870, 930, 931, 967, 966, 1434, 1435, 1471, 1470
871, 931, 932, 968, 967, 1435, 1436, 1472, 1471
872, 932, 933, 969, 968, 1436, 1437, 1473, 1472
873, 933, 934, 970, 969, 1437, 1438, 1474, 1473
874, 934, 935, 971, 970, 1438, 1439, 1475, 1474
875, 935, 936, 972, 971, 1439, 1440, 1476, 1475
876, 937, 938, 974, 973, 1441, 1442, 1478, 1477
877, 938, 939, 975, 974, 1442, 1443, 1479, 1478
878, 939, 940, 976, 975, 1443, 1444, 1480, 1479
879, 940, 941, 977, 976, 1444, 1445, 1481, 1480
880, 941, 942, 978, 977, 1445, 1446, 1482, 1481
881, 942, 943, 979, 978, 1446, 1447, 1483, 1482
882, 943, 944, 980, 979, 1447, 1448, 1484, 1483
883, 944, 945, 981, 980, 1448, 1449, 1485, 1484
884, 945, 946, 982, 981, 1449, 1450, 1486, 1485
885, 946, 947, 983, 982, 1450, 1451, 1487, 1486
886, 947, 948, 984, 983, 1451, 1452, 1488, 1487
887, 948, 949, 985, 984, 1452, 1453, 1489, 1488
888, 949, 950, 986, 985, 1453, 1454, 1490, 1489
889, 950, 951, 987, 986, 1454, 1455, 1491, 1490
890, 951, 952, 988, 987, 1455, 1456, 1492, 1491
891, 952, 953, 989, 988, 1456, 1457, 1493, 1492
892, 953, 954, 990, 989, 1457, 1458, 1494, 1493
893, 954, 955, 991, 990, 1458, 1459, 1495, 1494
894, 955, 956, 992, 991, 1459, 1460, 1496, 1495
895, 956, 957, 993, 992, 1460, 1461, 1497, 1496
896, 957, 958, 994, 993, 1461, 1462, 1498, 1497
897, 958, 959, 995, 994, 1462, 1463, 1499, 1498
898, 959, 960, 996, 995, 1463, 1464, 1500, 1499
899, 960, 961, 997, 996, 1464, 1465, 1501, 1500
900, 961, 962, 998, 997, 1465, 1466, 1502, 1501
901, 962, 963, 999, 998, 1466, 1467, 1503, 1502
902, 963, 964, 1000, 999, 1467, 1468, 1504, 1503
903, 964, 965, 1001, 1000, 1468, 1469, 1505, 1504
904, 965, 966, 1002, 1001, 1469, 1470, 1506, 1505
905, 966, 967, 1003, 1002, 1470, 1471, 1507, 1506
906, 967, 968, 1004, 1003, 1471, 1472, 1508, 1507
907, 968, 969, 1005, 1004, 1472, 1473, 1509, 1508
908, 969, 970, 1006, 1005, 1473, 1474, 1510, 1509
909, 970, 971, 1007, 1006, 1474, 1475, 1511, 1510
910, 971, 972, 1008, 1007, 1475, 1476, 1512, 1511
911, 1009, 1010, 1046, 1045, 1513, 1514, 1550, 1549
912, 1010, 1011, 1047, 1046, 1514, 1515, 1551, 1550
913, 1011, 1012, 1048, 1047, 1515, 1516, 1552, 1551
914, 1012, 1013, 1049, 1048, 1516, 1517, 1553, 1552
915, 1013, 1014, 1050, 1049, 1517, 1518, 1554, 1553
916, 1014, 1015, 1051, 1050, 1518, 1519, 1555, 1554
917, 1015, 1016, 1052, 1051, 1519, 1520, 1556, 1555
918, 1016, 1017, 1053, 1052, 1520, 1521, 1557, 1556
919, 1017, 1018, 1054, 1053, 1521, 1522, 1558, 1557
920, 1018, 1019, 1055, 1054, 1522, 1523, 1559, 1558
921, 1019, 1020, 1056, 1055, 1523, 1524, 1560, 1559
922, 1020, 1021, 1057, 1056, 1524, 1525, 1561, 1560
923, 1021, 1022, 1058, 1057, 1525, 1526, 1562, 1561
924, 1022, 1023, 1059, 1058, 1526, 1527, 1563, 1562
925, 1023, 1024, 1060, 1059, 1527, 1528, 1564, 1563
926, 1024, 1025, 1061, 1060, 1528, 1529, 1565, 1564
927, 1025, 1026, 1062, 1061, 1529, 1530, 1566, 1565
928, 1026, 1027, 1063, 1062, 1530, 1531, 1567, 1566
929, 1027, 1028, 1064, 1063, 1531, 1532, 1568, 1567
930, 1028, 1029, 1065, 1064, 1532, 1533, 1569, 1568
931, 1029, 1030, 1066, 1065, 1533, 1534, 1570, 1569
932, 1030, 1031, 1067, 1066, 1534, 1535, 1571, 1570
933, 1031, 1032, 1068, 1067, 1535, 1536, 1572, 1571
934, 1032, 1033, 1069, 1068, 1536, 1537, 1573, 1572
935, 1033, 1034, 1070, 1069, 1537, 1538, 1574, 1573
936, 1034, 1035, 1071, 1070, 1538, 1539, 1575, 1574
937, 1035, 1036, 1072, 1071, 1539, 1540, 1576, 1575
938, 1036, 1037, 1073, 1072, 1540, 1541, 1577, 1576
939, 1037, 1038, 1074, 1073, 1541, 1542, 1578, 1577
940, 1038, 1039, 1075, 1074, 1542, 1543, 1579, 1578
941, 1039, 1040, 1076, 1075, 1543, 1544, 1580, 1579
942, 1040, 1041, 1077, 1076, 1544, 1545, 1581, 1580
943, 1041, 1042, 1078, 1077, 1545, 1546, 1582, 1581
944, 1042, 1043, 1079, 1078, 1546, 1547, 1583, 1582
945, 1043, 1044, 1080, 1079, 1547, 1548, 1584, 1583
946, 1045, 1046, 1082, 1081, 1549, 1550, 1586, 1585
947, 1046, 1047, 1083, 1082, 1550, 1551, 1587, 1586
948, 1047, 1048, 1084, 1083, 1551, 1552, 1588, 1587
949, 1048, 1049, 1085, 1084, 1552, 1553, 1589, 1588
950, 1049, 1050, 1086, 1085, 1553, 1554, 1590, 1589
951, 1050, 1051, 1087, 1086, 1554, 1555, 1591, 1590
952, 1051, 1052, 1088, 1087, 1555, 1556, 1592, 1591
953, 1052, 1053, 1089, 1088, 1556, 1557, 1593, 1592
954, 1053, 1054, 1090, 1089, 1557, 1558, 1594, 1593
955, 1054, 1055, 1091, 1090, 1558, 1559, 1595, 1594
956, 1055, 1056, 1092, 1091, 1559, 1560, 1596, 1595
957, 1056, 1057, 1093, 1092, 1560, 1561, 1597, 1596
958, 1057, 1058, 1094, 1093, 1561, 1562, 1598, 1597
959, 1058, 1059, 1095, 1094, 1562, 1563, 1599, 1598
960, 1059, 1060, 1096, 1095, 1563, 1564, 1600, 1599
961, 1060, 1061, 1097, 1096, 1564, 1565, 1601, 1600
962, 1061, 1062, 1098, 1097, 1565, 1566, 1602, 1601
963, 1062, 1063, 1099, 1098, 1566, 1567, 1603, 1602
964, 1063, 1064, 1100, 1099, 1567, 1568, 1604, 1603
965, 1064, 1065, 1101, 1100, 1568, 1569, 1605, 1604
966, 1065, 1066, 1102, 1101, 1569, 1570, 1606, 1605
967, 1066, 1067, 1103, 1102, 1570, 1571, 1607, 1606
968, 1067, 1068, 1104, 1103, 1571, 1572, 1608, 1607
969, 1068, 1069, 1105, 1104, 1572, 1573, 1609, 1608
970, 1069, 1070, 1106, 1105, 1573, 1574, 1610, 1609
971, 1070, 1071, 1107, 1106, 1574, 1575, 1611, 1610
972, 1071, 1072, 1108, 1107, 1575, 1576, 1612, 1611
973, 1072, 1073, 1109, 1108, 1576, 1577, 1613, 1612
974, 1073, 1074, 1110, 1109, 1577, 1578, 1614, 1613
975, 1074, 1075, 1111, 1110, 1578, 1579, 1615, 1614
976, 1075, 1076, 1112, 1111, 1579, 1580, 1616, 1615
977, 1076, 1077, 1113, 1112, 1580, 1581, 1617, 1616
978, 1077, 1078, 1114, 1113, 1581, 1582, 1618, 1617
979, 1078, 1079, 1115, 1114, 1582, 1583, 1619, 1618
980, 1079, 1080, 1116, 1115, 1583, 1584, 1620, 1619
981, 1081, 1082, 1118, 1117, 1585, 1586, 1622, 1621
982, 1082, 1083, 1119, 1118, 1586, 1587, 1623, 1622
983, 1083, 1084, 1120, 1119, 1587, 1588, 1624, 1623
984, 1084, 1085, 1121, 1120, 1588, 1589, 1625, 1624
985, 1085, 1086, 1122, 1121, 1589, 1590, 1626, 1625
986, 1086, 1087, 1123, 1122, 1590, 1591, 1627, 1626
987, 1087, 1088, 1124, 1123, 1591, 1592, 1628, 1627
988, 1088, 1089, 1125, 1124, 1592, 1593, 1629, 1628
989, 1089, 1090, 1126, 1125, 1593, 1594, 1630, 1629
990, 1090, 1091, 1127, 1126, 1594, 1595, 1631, 1630
991, 1091, 1092, 1128, 1127, 1595, 1596, 1632, 1631
992, 1092, 1093, 1129, 1128, 1596, 1597, 1633, 1632
993, 1093, 1094, 1130, 1129, 1597, 1598, 1634, 1633
994, 1094, 1095, 1131, 1130, 1598, 1599, 1635, 1634
995, 1095, 1096, 1132, 1131, 1599, 1600, 1636, 1635
996, 1096, 1097, 1133, 1132, 1600, 1601, 1637, 1636
997, 1097, 1098, 1134, 1133, 1601, 1602, 1638, 1637
998, 1098, 1099, 1135, 1134, 1602, 1603, 1639, 1638
999, 1099, 1100, 1136, 1135, 1603, 1604, 1640, 1639
1000, 1100, 1101, 1137, 1136, 1604, 1605, 1641, 1640
1001, 1101, 1102, 1138, 1137, 1605, 1606, 1642, 1641
1002, 1102, 1103, 1139, 1138, 1606, 1607, 1643, 1642
1003, 1103, 1104, 1140, 1139, 1607, 1608, 1644, 1643
1004, 1104, 1105, 1141, 1140, 1608, 1609, 1645, 1644
1005, 1105, 1106, 1142, 1141, 1609, 1610, 1646, 1645
1006, 1106, 1107, 1143, 1142, 1610, 1611, 1647, 1646
1007, 1107, 1108, 1144, 1143, 1611, 1612, 1648, 1647
1008, 1108, 1109, 1145, 1144, 1612, 1613, 1649, 1648
1009, 1109, 1110, 1146, 1145, 1613, 1614, 1650, 1649
1010, 1110, 1111, 1147, 1146, 1614, 1615, 1651, 1650
1011, 1111, 1112, 1148, 1147, 1615, 1616, 1652, 1651
1012, 1112, 1113, 1149, 1148, 1616, 1617, 1653, 1652
1013, 1113, 1114, 1150, 1149, 1617, 1618, 1654, 1653
1014, 1114, 1115, 1151, 1150, 1618, 1619, 1655, 1654
1015, 1115, 1116, 1152, 1151, 1619, 1620, 1656, 1655
1016, 1117, 1118, 1154, 1153, 1621, 1622, 1658, 1657
1017, 1118, 1119, 1155, 1154, 1622, 1623, 1659, 1658
1018, 1119, 1120, 1156, 1155, 1623, 1624, 1660, 1659
1019, 1120, 1121, 1157, 1156, 1624, 1625, 1661, 1660
1020, 1121, 1122, 1158, 1157, 1625, 1626, 1662, 1661
1021, 1122, 1123, 1159, 1158, 1626, 1627, 1663, 1662
1022, 1123, 1124, 1160, 1159, 1627, 1628, 1664, 1663
1023, 1124, 1125, 1161, 1160, 1628, 1629, 1665, 1664
1024, 1125, 1126, 1162, 1161, 1629, 1630, 1666, 1665
1025, 1126, 1127, 1163, 1162, 1630, 1631, 1667, 1666
1026, 1127, 1128, 1164, 1163, 1631, 1632, 1668, 1667
1027, 1128, 1129, 1165, 1164, 1632, 1633, 1669, 1668
1028, 1129, 1130, 1166, 1165, 1633, 1634, 1670, 1669
1029, 1130, 1131, 1167, 1166, 1634, 1635, 1671, 1670
1030, 1131, 1132, 1168, 1167, 1635, 1636, 1672, 1671
1031, 1132, 1133, 1169, 1168, 1636, 1637, 1673, 1672
1032, 1133, 1134, 1170, 1169, 1637, 1638, 1674, 1673
1033, 1134, 1135, 1171, 1170, 1638, 1639, 1675, 1674
1034, 1135, 1136, 1172, 1171, 1639, 1640, 1676, 1675
1035, 1136, 1137, 1173, 1172, 1640, 1641, 1677, 1676
1036, 1137, 1138, 1174, 1173, 1641, 1642, 1678, 1677
1037, 1138, 1139, 1175, 1174, 1642, 1643, 1679, 1678
1038, 1139, 1140, 1176, 1175, 1643, 1644, 1680, 1679
1039, 1140, 1141, 1177, 1176, 1644, 1645, 1681, 1680
1040, 1141, 1142, 1178, 1177, 1645, 1646, 1682, 1681
1041, 1142, 1143, 1179, 1178, 1646, 1647, 1683, 1682
1042, 1143, 1144, 1180, 1179, 1647, 1648, 1684, 1683
1043, 1144, 1145, 1181, 1180, 1648, 1649, 1685, 1684
1044, 1145, 1146, 1182, 1181, 1649, 1650, 1686, 1685
1045, 1146, 1147, 1183, 1182, 1650, 1651, 1687, 1686
1046, 1147, 1148, 1184, 1183, 1651, 1652, 1688, 1687
1047, 1148, 1149, 1185, 1184, 1652, 1653, 1689, 1688
1048, 1149, 1150, 1186, 1185, 1653, 1654, 1690, 1689
1049, 1150, 1151, 1187, 1186, 1654, 1655, 1691, 1690
1050, 1151, 1152, 1188, 1187, 1655, 1656, 1692, 1691
1051, 1153, 1154, 1190, 1189, 1657, 1658, 1694, 1693
1052, 1154, 1155, 1191, 1190, 1658, 1659, 1695, 1694
1053, 1155, 1156, 1192, 1191, 1659, 1660, 1696, 1695
1054, 1156, 1157, 1193, 1192, 1660, 1661, 1697, 1696
1055, 1157, 1158, 1194, 1193, 1661, 1662, 1698, 1697
1056, 1158, 1159, 1195, 1194, 1662, 1663, 1699, 1698
1057, 1159, 1160, 1196, 1195, 1663, 1664, 1700, 1699
1058, 1160, 1161, 1197, 1196, 1664, 1665, 1701, 1700
1059, 1161, 1162, 1198, 1197, 1665, 1666, 1702, 1701
1060, 1162, 1163, 1199, 1198, 1666, 1667, 1703, 1702
1061, 1163, 1164, 1200, 1199, 1667, 1668, 1704, 1703
1062, 1164, 1165, 1201, 1200, 1668, 1669, 1705, 1704
1063, 1165, 1166, 1202, 1201, 1669, 1670, 1706, 1705
1064, 1166, 1167, 1203, 1202, 1670, 1671, 1707, 1706
1065, 1167, 1168, 1204, 1203, 1671, 1672, 1708, 1707
1066, 1168, 1169, 1205, 1204, 1672, 1673, 1709, 1708
1067, 1169, 1170, 1206, 1205, 1673, 1674, 1710, 1709
1068, 1170, 1171, 1207, 1206, 1674, 1675, 1711, 1710
1069, 1171, 1172, 1208, 1207, 1675, 1676, 1712, 1711
1070, 1172, 1173, 1209, 1208, 1676, 1677, 1713, 1712
1071, 1173, 1174, 1210, 1209, 1677, 1678, 1714, 1713
1072, 1174, 1175, 1211, 1210, 1678, 1679, 1715, 1714
1073, 1175, 1176, 1212, 1211, 1679, 1680, 1716, 1715
1074, 1176, 1177, 1213, 1212, 1680, 1681, 1717, 1716
1075, 1177, 1178, 1214, 1213, 1681, 1682, 1718, 1717
1076, 1178, 1179, 1215, 1214, 1682, 1683, 1719, 1718
1077, 1179, 1180, 1216, 1215, 1683, 1684, 1720, 1719
1078, 1180, 1181, 1217, 1216, 1684, 1685, 1721, 1720
1079, 1181, 1182, 1218, 1217, 1685, 1686, 1722, 1721
1080, 1182, 1183, 1219, 1218, 1686, 1687, 1723, 1722
1081, 1183, 1184, 1220, 1219, 1687, 1688, 1724, 1723
1082, 1184, 1185, 1221, 1220, 1688, 1689, 1725, 1724
1083, 1185, 1186, 1222, 1221, 1689, 1690, 1726, 1725
1084, 1186, 1187, 1223, 1222, 1690, 1691, 1727, 1726
1085, 1187, 1188, 1224, 1223, 1691, 1692, 1728, 1727
1086, 1189, 1190, 1226, 1225, 1693, 1694, 1730, 1729
1087, 1190, 1191, 1227, 1226, 1694, 1695, 1731, 1730
1088, 1191, 1192, 1228, 1227, 1695, 1696, 1732, 1731
1089, 1192, 1193, 1229, 1228, 1696, 1697, 1733, 1732
1090, 1193, 1194, 1230, 1229, 1697, 1698, 1734, 1733
1091, 1194, 1195, 1231, 1230, 1698, 1699, 1735, 1734
1092, 1195, 1196, 1232, 1231, 1699, 1700, 1736, 1735
1093, 1196, 1197, 1233, 1232, 1700, 1701, 1737, 1736
1094, 1197, 1198, 1234, 1233, 1701, 1702, 1738, 1737
1095, 1198, 1199, 1235, 1234, 1702, 1703, 1739, 1738
1096, 1199, 1200, 1236, 1235, 1703, 1704, 1740, 1739
1097, 1200, 1201, 1237, 1236, 1704, 1705, 1741, 1740
1098, 1201, 1202, 1238, 1237, 1705, 1706, 1742, 1741
1099, 1202, 1203, 1239, 1238, 1706, 1707, 1743, 1742
1100, 1203, 1204, 1240, 1239, 1707, 1708, 1744, 1743
1101, 1204, 1205, 1241, 1240, 1708, 1709, 1745, 1744
1102, 1205, 1206, 1242, 1241, 1709, 1710, 1746, 1745
1103, 1206, 1207, 1243, 1242, 1710, 1711, 1747, 1746
1104, 1207, 1208, 1244, 1243, 1711, 1712, 1748, 1747
1105, 1208, 1209, 1245, 1244, 1712, 1713, 1749, 1748
1106, 1209, 1210, 1246, 1245, 1713, 1714, 1750, 1749
1107, 1210, 1211, 1247, 1246, 1714, 1715, 1751, 1750
1108, 1211, 1212, 1248, 1247, 1715, 1716, 1752, 1751
1109, 1212, 1213, 1249, 1248, 1716, 1717, 1753, 1752
1110, 1213, 1214, 1250, 1249, 1717, 1718, 1754, 1753
1111, 1214, 1215, 1251, 1250, 1718, 1719, 1755, 1754
1112, 1215, 1216, 1252, 1251, 1719, 1720, 1756, 1755
1113, 1216, 1217, 1253, 1252, 1720, 1721, 1757, 1756
1114, 1217, 1218, 1254, 1253, 1721, 1722, 1758, 1757
1115, 1218, 1219, 1255, 1254, 1722, 1723, 1759, 1758
1116, 1219, 1220, 1256, 1255, 1723, 1724, 1760, 1759
1117, 1220, 1221, 1257, 1256, 1724, 1725, 1761, 1760
1118, 1221, 1222, 1258, 1257, 1725, 1726, 1762, 1761
1119, 1222, 1223, 1259, 1258, 1726, 1727, 1763, 1762
1120, 1223, 1224, 1260, 1259, 1727, 1728, 1764, 1763
1121, 1225, 1226, 1262, 1261, 1729, 1730, 1766, 1765
1122, 1226, 1227, 1263, 1262, 1730, 1731, 1767, 1766
1123, 1227, 1228, 1264, 1263, 1731, 1732, 1768, 1767
1124, 1228, 1229, 1265, 1264, 1732, 1733, 1769, 1768
1125, 1229, 1230, 1266, 1265, 1733, 1734, 1770, 1769
1126, 1230, 1231, 1267, 1266, 1734, 1735, 1771, 1770
1127, 1231, 1232, 1268, 1267, 1735, 1736, 1772, 1771
1128, 1232, 1233, 1269, 1268, 1736, 1737, 1773, 1772
1129, 1233, 1234, 1270, 1269, 1737, 1738, 1774, 1773
1130, 1234, 1235, 1271, 1270, 1738, 1739, 1775, 1774
1131, 1235, 1236, 1272, 1271, 1739, 1740, 1776, 1775
1132, 1236, 1237, 1273, 1272, 1740, 1741, 1777, 1776
1133, 1237, 1238, 1274, 1273, 1741, 1742, 1778, 1777
1134, 1238, 1239, 1275, 1274, 1742, 1743, 1779, 1778
1135, 1239, 1240, 1276, 1275, 1743, 1744, 1780, 1779
1136, 1240, 1241, 1277, 1276, 1744, 1745, 1781, 1780
1137, 1241, 1242, 1278, 1277, 1745, 1746, 1782, 1781
1138, 1242, 1243, 1279, 1278, 1746, 1747, 1783, 1782
1139, 1243, 1244, 1280, 1279, 1747, 1748, 1784, 1783
1140, 1244, 1245, 1281, 1280, 1748, 1749, 1785, 1784
1141, 1245, 1246, 1282, 1281, 1749, 1750, 1786, 1785
1142, 1246, 1247, 1283, 1282, 1750, 1751, 1787, 1786
1143, 1247, 1248, 1284, 1283, 1751, 1752, 1788, 1787
1144, 1248, 1249, 1285, 1284, 1752, 1753, 1789, 1788
1145, 1249, 1250, 1286, 1285, 1753, 1754, 1790, 1789
1146, 1250, 1251, 1287, 1286, 1754, 1755, 1791, 1790
1147, 1251, 1252, 1288, 1287, 1755, 1756, 1792, 1791
1148, 1252, 1253, 1289, 1288, 1756, 1757, 1793, 1792
1149, 1253, 1254, 1290, 1289, 1757, 1758, 1794, 1793
1150, 1254, 1255, 1291, 1290, 1758, 1759, 1795, 1794
1151, 1255, 1256, 1292, 1291, 1759, 1760, 1796, 1795
1152, 1256, 1257, 1293, 1292, 1760, 1761, 1797, 1796
1153, 1257, 1258, 1294, 1293, 1761, 1762, 1798, 1797
1154, 1258, 1259, 1295, 1294, 1762, 1763, 1799, 1798
1155, 1259, 1260, 1296, 1295, 1763, 1764, 1800, 1799
1156, 1261, 1262, 1298, 1297, 1765, 1766, 1802, 1801
1157, 1262, 1263, 1299, 1298, 1766, 1767, 1803, 1802
1158, 1263, 1264, 1300, 1299, 1767, 1768, 1804, 1803
1159, 1264, 1265, 1301, 1300, 1768, 1769, 1805, 1804
1160, 1265, 1266, 1302, 1301, 1769, 1770, 1806, 1805
1161, 1266, 1267, 1303, 1302, 1770, 1771, 1807, 1806
1162, 1267, 1268, 1304, 1303, 1771, 1772, 1808, 1807
1163, 1268, 1269, 1305, 1304, 1772, 1773, 1809, 1808
1164, 1269, 1270, 1306, 1305, 1773, 1774, 1810, 1809
1165, 1270, 1271, 1307, 1306, 1774, 1775, 1811, 1810
1166, 1271, 1272, 1308, 1307, 1775, 1776, 1812, 1811
1167, 1272, 1273, 1309, 1308, 1776, 1777, 1813, 1812
1168, 1273, 1274, 1310, 1309, 1777, 1778, 1814, 1813
1169, 1274, 1275, 1311, 1310, 1778, 1779, 1815, 1814
1170, 1275, 1276, 1312, 1311, 1779, 1780, 1816, 1815
1171, 1276, 1277, 1313, 1312, 1780, 1781, 1817, 1816
1172, 1277, 1278, 1314, 1313, 1781, 1782, 1818, 1817
1173, 1278, 1279, 1315, 1314, 1782, 1783, 1819, 1818
1174, 1279, 1280, 1316, 1315, 1783, 1784, 1820, 1819
1175, 1280, 1281, 1317, 1316, 1784, 1785, 1821, 1820
1176, 1281, 1282, 1318, 1317, 1785, 1786, 1822, 1821
1177, 1282, 1283, 1319, 1318, 1786, 1787, 1823, 1822
1178, 1283, 1284, 1320, 1319, 1787, 1788, 1824, 1823
1179, 1284, 1285, 1321, 1320, 1788, 1789, 1825, 1824
1180, 1285, 1286, 1322, 1321, 1789, 1790, 1826, 1825
1181, 1286, 1287, 1323, 1322, 1790, 1791, 1827, 1826
1182, 1287, 1288, 1324, 1323, 1791, 1792, 1828, 1827
1183, 1288, 1289, 1325, 1324, 1792, 1793, 1829, 1828
1184, 1289, 1290, 1326, 1325, 1793, 1794, 1830, 1829
1185, 1290, 1291, 1327, 1326, 1794, 1795, 1831, 1830
1186, 1291, 1292, 1328, 1327, 1795, 1796, 1832, 1831
1187, 1292, 1293, 1329, 1328, 1796, 1797, 1833, 1832
1188, 1293, 1294, 1330, 1329, 1797, 1798, 1834, 1833
1189, 1294, 1295, 1331, 1330, 1798, 1799, 1835, 1834
1190, 1295, 1296, 1332, 1331, 1799, 1800, 1836, 1835
1191, 1297, 1298, 1334, 1333, 1801, 1802, 1838, 1837
1192, 1298, 1299, 1335, 1334, 1802, 1803, 1839, 1838
1193, 1299, 1300, 1336, 1335, 1803, 1804, 1840, 1839
1194, 1300, 1301, 1337, 1336, 1804, 1805, 1841, 1840
1195, 1301, 1302, 1338, 1337, 1805, 1806, 1842, 1841
1196, 1302, 1303, 1339, 1338, 1806, 1807, 1843, 1842
1197, 1303, 1304, 1340, 1339, 1807, 1808, 1844, 1843
1198, 1304, 1305, 1341, 1340, 1808, 1809, 1845, 1844
1199, 1305, 1306, 1342, 1341, 1809, 1810, 1846, 1845
1200, 1306, 1307, 1343, 1342, 1810, 1811, 1847, 1846
1201, 1307, 1308, 1344, 1343, 1811, 1812, 1848, 1847
1202, 1308, 1309, 1345, 1344, 1812, 1813, 1849, 1848
1203, 1309, 1310, 1346, 1345, 1813, 1814, 1850, 1849
1204, 1310, 1311, 1347, 1346, 1814, 1815, 1851, 1850
1205, 1311, 1312, 1348, 1347, 1815, 1816, 1852, 1851
1206, 1312, 1313, 1349, 1348, 1816, 1817, 1853, 1852
1207, 1313, 1314, 1350, 1349, 1817, 1818, 1854, 1853
1208, 1314, 1315, 1351, 1350, 1818, 1819, 1855, 1854
1209, 1315, 1316, 1352, 1351, 1819, 1820, 1856, 1855
1210, 1316, 1317, 1353, 1352, 1820, 1821, 1857, 1856
1211, 1317, 1318, 1354, 1353, 1821, 1822, 1858, 1857
1212, 1318, 1319, 1355, 1354, 1822, 1823, 1859, 1858
1213, 1319, 1320, 1356, 1355, 1823, 1824, 1860, 1859
1214, 1320, 1321, 1357, 1356, 1824, 1825, 1861, 1860
1215, 1321, 1322, 1358, 1357, 1825, 1826, 1862, 1861
1216, 1322, 1323, 1359, 1358, 1826, 1827, 1863, 1862
1217, 1323, 1324, 1360, 1359, 1827, 1828, 1864, 1863
1218, 1324, 1325, 1361, 1360, 1828, 1829, 1865, 1864
1219, 1325, 1326, 1362, 1361, 1829, 1830, 1866, 1865
1220, 1326, 1327, 1363, 1362, 1830, 1831, 1867, 1866
1221, 1327, 1328, 1364, 1363, 1831, 1832, 1868, 1867
1222, 1328, 1329, 1365, 1364, 1832, 1833, 1869, 1868
1223, 1329, 1330, 1366, 1365, 1833, 1834, 1870, 1869
1224, 1330, 1331, 1367, 1366, 1834, 1835, 1871, 1870
1225, 1331, 1332, 1368, 1367, 1835, 1836, 1872, 1871
1226, 1333, 1334, 1370, 1369, 1837, 1838, 1874, 1873
1227, 1334, 1335, 1371, 1370, 1838, 1839, 1875, 1874
1228, 1335, 1336, 1372, 1371, 1839, 1840, 1876, 1875
1229, 1336, 1337, 1373, 1372, 1840, 1841, 1877, 1876
1230, 1337, 1338, 1374, 1373, 1841, 1842, 1878, 1877
1231, 1338, 1339, 1375, 1374, 1842, 1843, 1879, 1878
1232, 1339, 1340, 1376, 1375, 1843, 1844, 1880, 1879
1233, 1340, 1341, 1377, 1376, 1844, 1845, 1881, 1880
1234, 1341, 1342, 1378, 1377, 1845, 1846, 1882, 1881
1235, 1342, 1343, 1379, 1378, 1846, 1847, 1883, 1882
1236, 1343, 1344, 1380, 1379, 1847, 1848, 1884, 1883
1237, 1344, 1345, 1381, 1380, 1848, 1849, 1885, 1884
1238, 1345, 1346, 1382, 1381, 1849, 1850, 1886, 1885
1239, 1346, 1347, 1383, 1382, 1850, 1851, 1887, 1886
1240, 1347, 1348, 1384, 1383, 1851, 1852, 1888, 1887
1241, 1348, 1349, 1385, 1384, 1852, 1853, 1889, 1888
1242, 1349, 1350, 1386, 1385, 1853, 1854, 1890, 1889
1243, 1350, 1351, 1387, 1386, 1854, 1855, 1891, 1890
1244, 1351, 1352, 1388, 1387, 1855, 1856, 1892, 1891
1245, 1352, 1353, 1389, 1388, 1856, 1857, 1893, 1892
1246, 1353, 1354, 1390, 1389, 1857, 1858, 1894, 1893
1247, 1354, 1355, 1391, 1390, 1858, 1859, 1895, 1894
1248, 1355, 1356, 1392, 1391, 1859, 1860, 1896, 1895
1249, 1356, 1357, 1393, 1392, 1860, 1861, 1897, 1896
1250, 1357, 1358, 1394, 1393, 1861, 1862, 1898, 1897
1251, 1358, 1359, 1395, 1394, 1862, 1863, 1899, 1898
1252, 1359, 1360, 1396, 1395, 1863, 1864, 1900, 1899
1253, 1360, 1361, 1397, 1396, 1864, 1865, 1901, 1900
1254, 1361, 1362, 1398, 1397, 1865, 1866, 1902, 1901
1255, 1362, 1363, 1399, 1398, 1866, 1867, 1903, 1902
1256, 1363, 1364, 1400, 1399, 1867, 1868, 1904, 1903
1257, 1364, 1365, 1401, 1400, 1868, 1869, 1905, 1904
1258, 1365, 1366, 1402, 1401, 1869, 1870, 1906, 1905
1259, 1366, 1367, 1403, 1402, 1870, 1871, 1907, 1906
1260, 1367, 1368, 1404, 1403, 1871, 1872, 1908, 1907
1261, 1369, 1370, 1406, 1405, 1873, 1874, 1910, 1909
1262, 1370, 1371, 1407, 1406, 1874, 1875, 1911, 1910
1263, 1371, 1372, 1408, 1407, 1875, 1876, 1912, 1911
1264, 1372, 1373, 1409, 1408, 1876, 1877, 1913, 1912
1265, 1373, 1374, 1410, 1409, 1877, 1878, 1914, 1913
1266, 1374, 1375, 1411, 1410, 1878, 1879, 1915, 1914
1267, 1375, 1376, 1412, 1411, 1879, 1880, 1916, 1915
1268, 1376, 1377, 1413, 1412, 1880, 1881, 1917, 1916
1269, 1377, 1378, 1414, 1413, 1881, 1882, 1918, 1917
1270, 1378, 1379, 1415, 1414, 1882, 1883, 1919, 1918
1271, 1379, 1380, 1416, 1415, 1883, 1884, 1920, 1919
1272, 1380, 1381, 1417, 1416, 1884, 1885, 1921, 1920
1273, 1381, 1382, 1418, 1417, 1885, 1886, 1922, 1921
1274, 1382, 1383, 1419, 1418, 1886, 1887, 1923, 1922
1275, 1383, 1384, 1420, 1419, 1887, 1888, 1924, 1923
1276, 1384, 1385, 1421, 1420, 1888, 1889, 1925, 1924
1277, 1385, 1386, 1422, 1421, 1889, 1890, 1926, 1925
1278, 1386, 1387, 1423, 1422, 1890, 1891, 1927, 1926
1279, 1387, 1388, 1424, 1423, 1891, 1892, 1928, 1927
1280, 1388, 1389, 1425, 1424, 1892, 1893, 1929, 1928
1281, 1389, 1390, 1426, 1425, 1893, 1894, 1930, 1929
1282, 1390, 1391, 1427, 1426, 1894, 1895, 1931, 1930
1283, 1391, 1392, 1428, 1427, 1895, 1896, 1932, 1931
1284, 1392, 1393, 1429, 1428, 1896, 1897, 1933, 1932
1285, 1393, 1394, 1430, 1429, 1897, 1898, 1934, 1933
1286, 1394, 1395, 1431, 1430, 1898, 1899, 1935, 1934
1287, 1395, 1396, 1432, 1431, 1899, 1900, 1936, 1935
1288, 1396, 1397, 1433, 1432, 1900, 1901, 1937, 1936
1289, 1397, 1398, 1434, 1433, 1901, 1902, 1938, 1937
1290, 1398, 1399, 1435, 1434, 1902, 1903, 1939, 1938
1291, 1399, 1400, 1436, 1435, 1903, 1904, 1940, 1939
1292, 1400, 1401, 1437, 1436, 1904, 1905, 1941, 1940
1293, 1401, 1402, 1438, 1437, 1905, 1906, 1942, 1941
1294, 1402, 1403, 1439, 1438, 1906, 1907, 1943, 1942
1295, 1403, 1404, 1440, 1439, 1907, 1908, 1944, 1943
1296, 1405, 1406, 1442, 1441, 1909, 1910, 1946, 1945
1297, 1406, 1407, 1443, 1442, 1910, 1911, 1947, 1946
1298, 1407, 1408, 1444, 1443, 1911, 1912, 1948, 1947
1299, 1408, 1409, 1445, 1444, 1912, 1913, 1949, 1948
1300, 1409, 1410, 1446, 1445, 1913, 1914, 1950, 1949
1301, 1410, 1411, 1447, 1446, 1914, 1915, 1951, 1950
1302, 1411, 1412, 1448, 1447, 1915, 1916, 1952, 1951
1303, 1412, 1413, 1449, 1448, 1916, 1917, 1953, 1952
1304, 1413, 1414, 1450, 1449, 1917, 1918, 1954, 1953
1305, 1414, 1415, 1451, 1450, 1918, 1919, 1955, 1954
1306, 1415, 1416, 1452, 1451, 1919, 1920, 1956, 1955
1307, 1416, 1417, 1453, 1452, 1920, 1921, 1957, 1956
1308, 1417, 1418, 1454, 1453, 1921, 1922, 1958, 1957
1309, 1418, 1419, 1455, 1454, 1922, 1923, 1959, 1958
1310, 1419, 1420, 1456, 1455, 1923, 1924, 1960, 1959
1311, 1420, 1421, 1457, 1456, 1924, 1925, 1961, 1960
1312, 1421, 1422, 1458, 1457, 1925, 1926, 1962, 1961
1313, 1422, 1423, 1459, 1458, 1926, 1927, 1963, 1962
1314, 1423, 1424, 1460, 1459, 1927, 1928, 1964, 1963
1315, 1424, 1425, 1461, 1460, 1928, 1929, 1965, 1964
1316, 1425, 1426, 1462, 1461, 1929, 1930, 1966, 1965
1317, 1426, 1427, 1463, 1462, 1930, 1931, 1967, 1966
1318, 1427, 1428, 1464, 1463, 1931, 1932, 1968, 1967
1319, 1428, 1429, 1465, 1464, 1932, 1933, 1969, 1968
1320, 1429, 1430, 1466, 1465, 1933, 1934, 1970, 1969
1321, 1430, 1431, 1467, 1466, 1934, 1935, 1971, 1970
1322, 1431, 1432, 1468, 1467, 1935, 1936, 1972, 1971
1323, 1432, 1433, 1469, 1468, 1936, 1937, 1973, 1972
1324, 1433, 1434, 1470, 1469, 1937, 1938, 1974, 1973
1325, 1434, 1435, 1471, 1470, 1938, 1939, 1975, 1974
1326, 1435, 1436, 1472, 1471, 1939, 1940, 1976, 1975
1327, 1436, 1437, 1473, 1472, 1940, 1941, 1977, 1976
1328, 1437, 1438, 1474, 1473, 1941, 1942, 1978, 1977
1329, 1438, 1439, 1475, 1474, 1942, 1943, 1979, 1978
1330, 1439, 1440, 1476, 1475, 1943, 1944, 1980, 1979
1331, 1441, 1442, 1478, 1477, 1945, 1946, 1982, 1981
1332, 1442, 1443, 1479, 1478, 1946, 1947, 1983, 1982
1333, 1443, 1444, 1480, 1479, 1947, 1948, 1984, 1983
1334, 1444, 1445, 1481, 1480, 1948, 1949, 1985, 1984
1335, 1445, 1446, 1482, 1481, 1949, 1950, 1986, 1985
1336, 1446, 1447, 1483, 1482, 1950, 1951, 1987, 1986
1337, 1447, 1448, 1484, 1483, 1951, 1952, 1988, 1987
1338, 1448, 1449, 1485, 1484, 1952, 1953, 1989, 1988
1339, 1449, 1450, 1486, 1485, 1953, 1954, 1990, 1989
1340, 1450, 1451, 1487, 1486, 1954, 1955, 1991, 1990
1341, 1451, 1452, 1488, 1487, 1955, 1956, 1992, 1991
1342, 1452, 1453, 1489, 1488, 1956, 1957, 1993, 1992
1343, 1453, 1454, 1490, 1489, 1957, 1958, 1994, 1993
1344, 1454, 1455, 1491, 1490, 1958, 1959, 1995, 1994
1345, 1455, 1456, 1492, 1491, 1959, 1960, 1996, 1995
1346, 1456, 1457, 1493, 1492, 1960, 1961, 1997, 1996
1347, 1457, 1458, 1494, 1493, 1961, 1962, 1998, 1997
1348, 1458, 1459, 1495, 1494, 1962, 1963, 1999, 1998
1349, 1459, 1460, 1496, 1495, 1963, 1964, 2000, 1999
1350, 1460, 1461, 1497, 1496, 1964, 1965, 2001, 2000
1351, 1461, 1462, 1498, 1497, 1965, 1966, 2002, 2001
1352, 1462, 1463, 1499, 1498, 1966, 1967, 2003, 2002
1353, 1463, 1464, 1500, 1499, 1967, 1968, 2004, 2003
1354, 1464, 1465, 1501, 1500, 1968, 1969, 2005, 2004
1355, 1465, 1466, 1502, 1501, 1969, 1970, 2006, 2005
1356, 1466, 1467, 1503, 1502, 1970, 1971, 2007, 2006
1357, 1467, 1468, 1504, 1503, 1971, 1972, 2008, 2007
1358, 1468, 1469, 1505, 1504, 1972, 1973, 2009, 2008
1359, 1469, 1470, 1506, 1505, 1973, 1974, 2010, 2009
1360, 1470, 1471, 1507, 1506, 1974, 1975, 2011, 2010
1361, 1471, 1472, 1508, 1507, 1975, 1976, 2012, 2011
1362, 1472, 1473, 1509, 1508, 1976, 1977, 2013, 2012
1363, 1473, 1474, 1510, 1509, 1977, 1978, 2014, 2013
1364, 1474, 1475, 1511, 1510, 1978, 1979, 2015, 2014
1365, 1475, 1476, 1512, 1511, 1979, 1980, 2016, 2015
1366, 1513, 1514, 1550, 1549, 2017, 2018, 2054, 2053
1367, 1514, 1515, 1551, 1550, 2018, 2019, 2055, 2054
1368, 1515, 1516, 1552, 1551, 2019, 2020, 2056, 2055
1369, 1516, 1517, 1553, 1552, 2020, 2021, 2057, 2056
1370, 1517, 1518, 1554, 1553, 2021, 2022, 2058, 2057
1371, 1518, 1519, 1555, 1554, 2022, 2023, 2059, 2058
1372, 1519, 1520, 1556, 1555, 2023, 2024, 2060, 2059
1373, 1520, 1521, 1557, 1556, 2024, 2025, 2061, 2060
1374, 1521, 1522, 1558, 1557, 2025, 2026, 2062, 2061
1375, 1522, 1523, 1559, 1558, 2026, 2027, 2063, 2062
1376, 1523, 1524, 1560, 1559, 2027, 2028, 2064, 2063
1377, 1524, 1525, 1561, 1560, 2028, 2029, 2065, 2064
1378, 1525, 1526, 1562, 1561, 2029, 2030, 2066, 2065
1379, 1526, 1527, 1563, 1562, 2030, 2031, 2067, 2066
1380, 1527, 1528, 1564, 1563, 2031, 2032, 2068, 2067
1381, 1528, 1529, 1565, 1564, 2032, 2033, 2069, 2068
1382, 1529, 1530, 1566, 1565, 2033, 2034, 2070, 2069
1383, 1530, 1531, 1567, 1566, 2034, 2035, 2071, 2070
1384, 1531, 1532, 1568, 1567, 2035, 2036, 2072, 2071
1385, 1532, 1533, 1569, 1568, 2036, 2037, 2073, 2072
1386, 1533, 1534, 1570, 1569, 2037, 2038, 2074, 2073
1387, 1534, 1535, 1571, 1570, 2038, 2039, 2075, 2074
1388, 1535, 1536, 1572, 1571, 2039, 2040, 2076, 2075
1389, 1536, 1537, 1573, 1572, 2040, 2041, 2077, 2076
1390, 1537, 1538, 1574, 1573, 2041, 2042, 2078, 2077
1391, 1538, 1539, 1575, 1574, 2042, 2043, 2079, 2078
1392, 1539, 1540, 1576, 1575, 2043, 2044, 2080, 2079
1393, 1540, 1541, 1577, 1576, 2044, 2045, 2081, 2080
1394, 1541, 1542, 1578, 1577, 2045, 2046, 2082, 2081
1395, 1542, 1543, 1579, 1578, 2046, 2047, 2083, 2082
1396, 1543, 1544, 1580, 1579, 2047, 2048, 2084, 2083
1397, 1544, 1545, 1581, 1580, 2048, 2049, 2085, 2084
1398, 1545, 1546, 1582, 1581, 2049, 2050, 2086, 2085
1399, 1546, 1547, 1583, 1582, 2050, 2051, 2087, 2086
1400, 1547, 1548, 1584, 1583, 2051, 2052, 2088, 2087
1401, 1549, 1550, 1586, 1585, 2053, 2054, 2090, 2089
1402, 1550, 1551, 1587, 1586, 2054, 2055, 2091, 2090
1403, 1551, 1552, 1588, 1587, 2055, 2056, 2092, 2091
1404, 1552, 1553, 1589, 1588, 2056, 2057, 2093, 2092
1405, 1553, 1554, 1590, 1589, 2057, 2058, 2094, 2093
1406, 1554, 1555, 1591, 1590, 2058, 2059, 2095, 2094
1407, 1555, 1556, 1592, 1591, 2059, 2060, 2096, 2095
1408, 1556, 1557, 1593, 1592, 2060, 2061, 2097, 2096
1409, 1557, 1558, 1594, 1593, 2061, 2062, 2098, 2097
1410, 1558, 1559, 1595, 1594, 2062, 2063, 2099, 2098
1411, 1559, 1560, 1596, 1595, 2063, 2064, 2100, 2099
1412, 1560, 1561, 1597, 1596, 2064, 2065, 2101, 2100
1413, 1561, 1562, 1598, 1597, 2065, 2066, 2102, 2101
1414, 1562, 1563, 1599, 1598, 2066, 2067, 2103, 2102
1415, 1563, 1564, 1600, 1599, 2067, 2068, 2104, 2103
1416, 1564, 1565, 1601, 1600, 2068, 2069, 2105, 2104
1417, 1565, 1566, 1602, 1601, 2069, 2070, 2106, 2105
1418, 1566, 1567, 1603, 1602, 2070, 2071, 2107, 2106
1419, 1567, 1568, 1604, 1603, 2071, 2072, 2108, 2107
1420, 1568, 1569, 1605, 1604, 2072, 2073, 2109, 2108
1421, 1569, 1570, 1606, 1605, 2073, 2074, 2110, 2109
1422, 1570, 1571, 1607, 1606, 2074, 2075, 2111, 2110
1423, 1571, 1572, 1608, 1607, 2075, 2076, 2112, 2111
1424, 1572, 1573, 1609, 1608, 2076, 2077, 2113, 2112
1425, 1573, 1574, 1610, 1609, 2077, 2078, 2114, 2113
1426, 1574, 1575, 1611, 1610, 2078, 2079, 2115, 2114
1427, 1575, 1576, 1612, 1611, 2079, 2080, 2116, 2115
1428, 1576, 1577, 1613, 1612, 2080, 2081, 2117, 2116
1429, 1577, 1578, 1614, 1613, 2081, 2082, 2118, 2117
1430, 1578, 1579, 1615, 1614, 2082, 2083, 2119, 2118
1431, 1579, 1580, 1616, 1615, 2083, 2084, 2120, 2119
1432, 1580, 1581, 1617, 1616, 2084, 2085, 2121, 2120
1433, 1581, 1582, 1618, 1617, 2085, 2086, 2122, 2121
1434, 1582, 1583, 1619, 1618, 2086, 2087, 2123, 2122
1435, 1583, 1584, 1620, 1619, 2087, 2088, 2124, 2123
1436, 1585, 1586, 1622, 1621, 2089, 2090, 2126, 2125
1437, 1586, 1587, 1623, 1622, 2090, 2091, 2127, 2126
1438, 1587, 1588, 1624, 1623, 2091, 2092, 2128, 2127
1439, 1588, 1589, 1625, 1624, 2092, 2093, 2129, 2128
1440, 1589, 1590, 1626, 1625, 2093, 2094, 2130, 2129
1441, 1590, 1591, 1627, 1626, 2094, 2095, 2131, 2130
1442, 1591, 1592, 1628, 1627, 2095, 2096, 2132, 2131
1443, 1592, 1593, 1629, 1628, 2096, 2097, 2133, 2132
1444, 1593, 1594, 1630, 1629, 2097, 2098, 2134, 2133
1445, 1594, 1595, 1631, 1630, 2098, 2099, 2135, 2134
1446, 1595, 1596, 1632, 1631, 2099, 2100, 2136, 2135
1447, 1596, 1597, 1633, 1632, 2100, 2101, 2137, 2136
1448, 1597, 1598, 1634, 1633, 2101, 2102, 2138, 2137
1449, 1598, 1599, 1635, 1634, 2102, 2103, 2139, 2138
1450, 1599, 1600, 1636, 1635, 2103, 2104, 2140, 2139
1451, 1600, 1601, 1637, 1636, 2104, 2105, 2141, 2140
1452, 1601, 1602, 1638, 1637, 2105, 2106, 2142, 2141
1453, 1602, 1603, 1639, 1638, 2106, 2107, 2143, 2142
1454, 1603, 1604, 1640, 1639, 2107, 2108, 2144, 2143
1455, 1604, 1605, 1641, 1640, 2108, 2109, 2145, 2144
1456, 1605, 1606, 1642, 1641, 2109, 2110, 2146, 2145
1457, 1606, 1607, 1643, 1642, 2110, 2111, 2147, 2146
1458, 1607, 1608, 1644, 1643, 2111, 2112, 2148, 2147
1459, 1608, 1609, 1645, 1644, 2112, 2113, 2149, 2148
1460, 1609, 1610, 1646, 1645, 2113, 2114, 2150, 2149
1461, 1610, 1611, 1647, 1646, 2114, 2115, 2151, 2150
1462, 1611, 1612, 1648, 1647, 2115, 2116, 2152, 2151
1463, 1612, 1613, 1649, 1648, 2116, 2117, 2153, 2152
1464, 1613, 1614, 1650, 1649, 2117, 2118, 2154, 2153
1465, 1614, 1615, 1651, 1650, 2118, 2119, 2155, 2154
1466, 1615, 1616, 1652, 1651, 2119, 2120, 2156, 2155
1467, 1616, 1617, 1653, 1652, 2120, 2121, 2157, 2156
1468, 1617, 1618, 1654, 1653, 2121, 2122, 2158, 2157
1469, 1618, 1619, 1655, 1654, 2122, 2123, 2159, 2158
1470, 1619, 1620, 1656, 1655, 2123, 2124, 2160, 2159
1471, 1621, 1622, 1658, 1657, 2125, 2126, 2162, 2161
1472, 1622, 1623, 1659, 1658, 2126, 2127, 2163, 2162
1473, 1623, 1624, 1660, 1659, 2127, 2128, 2164, 2163
1474, 1624, 1625, 1661, 1660, 2128, 2129, 2165, 2164
1475, 1625, 1626, 1662, 1661, 2129, 2130, 2166, 2165
1476, 1626, 1627, 1663, 1662, 2130, 2131, 2167, 2166
1477, 1627, 1628, 1664, 1663, 2131, 2132, 2168, 2167
1478, 1628, 1629, 1665, 1664, 2132, 2133, 2169, 2168
1479, 1629, 1630, 1666, 1665, 2133, 2134, 2170, 2169
1480, 1630, 1631, 1667, 1666, 2134, 2135, 2171, 2170
1481, 1631, 1632, 1668, 1667, 2135, 2136, 2172, 2171
1482, 1632, 1633, 1669, 1668, 2136, 2137, 2173, 2172
1483, 1633, 1634, 1670, 1669, 2137, 2138, 2174, 2173
1484, 1634, 1635, 1671, 1670, 2138, 2139, 2175, 2174
1485, 1635, 1636, 1672, 1671, 2139, 2140, 2176, 2175
1486, 1636, 1637, 1673, 1672, 2140, 2141, 2177, 2176
1487, 1637, 1638, 1674, 1673, 2141, 2142, 2178, 2177
1488, 1638, 1639, 1675, 1674, 2142, 2143, 2179, 2178
1489, 1639, 1640, 1676, 1675, 2143, 2144, 2180, 2179
1490, 1640, 1641, 1677, 1676, 2144, 2145, 2181, 2180
1491, 1641, 1642, 1678, 1677, 2145, 2146, 2182, 2181
1492, 1642, 1643, 1679, 1678, 2146, 2147, 2183, 2182
1493, 1643, 1644, 1680, 1679, 2147, 2148, 2184, 2183
1494, 1644, 1645, 1681, 1680, 2148, 2149, 2185, 2184
1495, 1645, 1646, 1682, 1681, 2149, 2150, 2186, 2185
1496, 1646, 1647, 1683, 1682, 2150, 2151, 2187, 2186
1497, 1647, 1648, 1684, 1683, 2151, 2152, 2188, 2187
1498, 1648, 1649, 1685, 1684, 2152, 2153, 2189, 2188
1499, 1649, 1650, 1686, 1685, 2153, 2154, 2190, 2189
1500, 1650, 1651, 1687, 1686, 2154, 2155, 2191, 2190
1501, 1651, 1652, 1688, 1687, 2155, 2156, 2192, 2191
1502, 1652, 1653, 1689, 1688, 2156, 2157, 2193, 2192
1503, 1653, 1654, 1690, 1689, 2157, 2158, 2194, 2193
1504, 1654, 1655, 1691, 1690, 2158, 2159, 2195, 2194
1505, 1655, 1656, 1692, 1691, 2159, 2160, 2196, 2195
1506, 1657, 1658, 1694, 1693, 2161, 2162, 2198, 2197
1507, 1658, 1659, 1695, 1694, 2162, 2163, 2199, 2198
1508, 1659, 1660, 1696, 1695, 2163, 2164, 2200, 2199
1509, 1660, 1661, 1697, 1696, 2164, 2165, 2201, 2200
1510, 1661, 1662, 1698, 1697, 2165, 2166, 2202, 2201
1511, 1662, 1663, 1699, 1698, 2166, 2167, 2203, 2202
1512, 1663, 1664, 1700, 1699, 2167, 2168, 2204, 2203
1513, 1664, 1665, 1701, 1700, 2168, 2169, 2205, 2204
1514, 1665, 1666, 1702, 1701, 2169, 2170, 2206, 2205
1515, 1666, 1667, 1703, 1702, 2170, 2171, 2207, 2206
1516, 1667, 1668, 1704, 1703, 2171, 2172, 2208, 2207
1517, 1668, 1669, 1705, 1704, 2172, 2173, 2209, 2208
1518, 1669, 1670, 1706, 1705, 2173, 2174, 2210, 2209
1519, 1670, 1671, 1707, 1706, 2174, 2175, 2211, 2210
1520, 1671, 1672, 1708, 1707, 2175, 2176, 2212, 2211
1521, 1672, 1673, 1709, 1708, 2176, 2177, 2213, 2212
1522, 1673, 1674, 1710, 1709, 2177, 2178, 2214, 2213
1523, 1674, 1675, 1711, 1710, 2178, 2179, 2215, 2214
1524, 1675, 1676, 1712, 1711, 2179, 2180, 2216, 2215
1525, 1676, 1677, 1713, 1712, 2180, 2181, 2217, 2216
1526, 1677, 1678, 1714, 1713, 2181, 2182, 2218, 2217
1527, 1678, 1679, 1715, 1714, 2182, 2183, 2219, 2218
1528, 1679, 1680, 1716, 1715, 2183, 2184, 2220, 2219
1529, 1680, 1681, 1717, 1716, 2184, 2185, 2221, 2220
1530, 1681, 1682, 1718, 1717, 2185, 2186, 2222, 2221
1531, 1682, 1683, 1719, 1718, 2186, 2187, 2223, 2222
1532, 1683, 1684, 1720, 1719, 2187, 2188, 2224, 2223
1533, 1684, 1685, 1721, 1720, 2188, 2189, 2225, 2224
1534, 1685, 1686, 1722, 1721, 2189, 2190, 2226, 2225
1535, 1686, 1687, 1723, 1722, 2190, 2191, 2227, 2226
1536, 1687, 1688, 1724, 1723, 2191, 2192, 2228, 2227
1537, 1688, 1689, 1725, 1724, 2192, 2193, 2229, 2228
1538, 1689, 1690, 1726, 1725, 2193, 2194, 2230, 2229
1539, 1690, 1691, 1727, 1726, 2194, 2195, 2231, 2230
1540, 1691, 1692, 1728, 1727, 2195, 2196, 2232, 2231
1541, 1693, 1694, 1730, 1729, 2197, 2198, 2234, 2233
1542, 1694, 1695, 1731, 1730, 2198, 2199, 2235, 2234
1543, 1695, 1696, 1732, 1731, 2199, 2200, 2236, 2235
1544, 1696, 1697, 1733, 1732, 2200, 2201, 2237, 2236
1545, 1697, 1698, 1734, 1733, 2201, 2202, 2238, 2237
1546, 1698, 1699, 1735, 1734, 2202, 2203, 2239, 2238
1547, 1699, 1700, 1736, 1735, 2203, 2204, 2240, 2239
1548, 1700, 1701, 1737, 1736, 2204, 2205, 2241, 2240
1549, 1701, 1702, 1738, 1737, 2205, 2206, 2242, 2241
1550, 1702, 1703, 1739, 1738, 2206, 2207, 2243, 2242
1551, 1703, 1704, 1740, 1739, 2207, 2208, 2244, 2243
1552, 1704, 1705, 1741, 1740, 2208, 2209, 2245, 2244
1553, 1705, 1706, 1742, 1741, 2209, 2210, 2246, 2245
1554, 1706, 1707, 1743, 1742, 2210, 2211, 2247, 2246
1555, 1707, 1708, 1744, 1743, 2211, 2212, 2248, 2247
1556, 1708, 1709, 1745, 1744, 2212, 2213, 2249, 2248
1557, 1709, 1710, 1746, 1745, 2213, 2214, 2250, 2249
1558, 1710, 1711, 1747, 1746, 2214, 2215, 2251, 2250
1559, 1711, 1712, 1748, 1747, 2215, 2216, 2252, 2251
1560, 1712, 1713, 1749, 1748, 2216, 2217, 2253, 2252
1561, 1713, 1714, 1750, 1749, 2217, 2218, 2254, 2253
1562, 1714, 1715, 1751, 1750, 2218, 2219, 2255, 2254
1563, 1715, 1716, 1752, 1751, 2219, 2220, 2256, 2255
1564, 1716, 1717, 1753, 1752, 2220, 2221, 2257, 2256
1565, 1717, 1718, 1754, 1753, 2221, 2222, 2258, 2257
1566, 1718, 1719, 1755, 1754, 2222, 2223, 2259, 2258
1567, 1719, 1720, 1756, 1755, 2223, 2224, 2260, 2259
1568, 1720, 1721, 1757, 1756, 2224, 2225, 2261, 2260
1569, 1721, 1722, 1758, 1757, 2225, 2226, 2262, 2261
1570, 1722, 1723, 1759, 1758, 2226, 2227, 2263, 2262
1571, 1723, 1724, 1760, 1759, 2227, 2228, 2264, 2263
1572, 1724, 1725, 1761, 1760, 2228, 2229, 2265, 2264
1573, 1725, 1726, 1762, 1761, 2229, 2230, 2266, 2265
1574, 1726, 1727, 1763, 1762, 2230, 2231, 2267, 2266
1575, 1727, 1728, 1764, 1763, 2231, 2232, 2268, 2267
1576, 1729, 1730, 1766, 1765, 2233, 2234, 2270, 2269
1577, 1730, 1731, 1767, 1766, 2234, 2235, 2271, 2270
1578, 1731, 1732, 1768, 1767, 2235, 2236, 2272, 2271
1579, 1732, 1733, 1769, 1768, 2236, 2237, 2273, 2272
1580, 1733, 1734, 1770, 1769, 2237, 2238, 2274, 2273
1581, 1734, 1735, 1771, 1770, 2238, 2239, 2275, 2274
1582, 1735, 1736, 1772, 1771, 2239, 2240, 2276, 2275
1583, 1736, 1737, 1773, 1772, 2240, 2241, 2277, 2276
1584, 1737, 1738, 1774, 1773, 2241, 2242, 2278, 2277
1585, 1738, 1739, 1775, 1774, 2242, 2243, 2279, 2278
1586, 1739, 1740, 1776, 1775, 2243, 2244, 2280, 2279
1587, 1740, 1741, 1777, 1776, 2244, 2245, 2281, 2280
1588, 1741, 1742, 1778, 1777, 2245, 2246, 2282, 2281
1589, 1742, 1743, 1779, 1778, 2246, 2247, 2283, 2282
1590, 1743, 1744, 1780, 1779, 2247, 2248, 2284, 2283
1591, 1744, 1745, 1781, 1780, 2248, 2249, 2285, 2284
1592, 1745, 1746, 1782, 1781, 2249, 2250, 2286, 2285
1593, 1746, 1747, 1783, 1782, 2250, 2251, 2287, 2286
1594, 1747, 1748, 1784, 1783, 2251, 2252, 2288, 2287
1595, 1748, 1749, 1785, 1784, 2252, 2253, 2289, 2288
1596, 1749, 1750, 1786, 1785, 2253, 2254, 2290, 2289
1597, 1750, 1751, 1787, 1786, 2254, 2255, 2291, 2290
1598, 1751, 1752, 1788, 1787, 2255, 2256, 2292, 2291
1599, 1752, 1753, 1789, 1788, 2256, 2257, 2293, 2292
1600, 1753, 1754, 1790, 1789, 2257, 2258, 2294, 2293
1601, 1754, 1755, 1791, 1790, 2258, 2259, 2295, 2294
1602, 1755, 1756, 1792, 1791, 2259, 2260, 2296, 2295
1603, 1756, 1757, 1793, 1792, 2260, 2261, 2297, 2296
1604, 1757, 1758, 1794, 1793, 2261, 2262, 2298, 2297
1605, 1758, 1759, 1795, 1794, 2262, 2263, 2299, 2298
1606, 1759, 1760, 1796, 1795, 2263, 2264, 2300, 2299
1607, 1760, 1761, 1797, 1796, 2264, 2265, 2301, 2300
1608, 1761, 1762, 1798, 1797, 2265, 2266, 2302, 2301
1609, 1762, 1763, 1799, 1798, 2266, 2267, 2303, 2302
1610, 1763, 1764, 1800, 1799, 2267, 2268, 2304, 2303
1611, 1765, 1766, 1802, 1801, 2269, 2270, 2306, 2305
1612, 1766, 1767, 1803, 1802, 2270, 2271, 2307, 2306
1613, 1767, 1768, 1804, 1803, 2271, 2272, 2308, 2307
1614, 1768, 1769, 1805, 1804, 2272, 2273, 2309, 2308
1615, 1769, 1770, 1806, 1805, 2273, 2274, 2310, 2309
1616, 1770, 1771, 1807, 1806, 2274, 2275, 2311, 2310
1617, 1771, 1772, 1808, 1807, 2275, 2276, 2312, 2311
1618, 1772, 1773, 1809, 1808, 2276, 2277, 2313, 2312
1619, 1773, 1774, 1810, 1809, 2277, 2278, 2314, 2313
1620, 1774, 1775, 1811, 1810, 2278, 2279, 2315, 2314
1621, 1775, 1776, 1812, 1811, 2279, 2280, 2316, 2315
1622, 1776, 1777, 1813, 1812, 2280, 2281, 2317, 2316
1623, 1777, 1778, 1814, 1813, 2281, 2282, 2318, 2317
1624, 1778, 1779, 1815, 1814, 2282, 2283, 2319, 2318
1625, 1779, 1780, 1816, 1815, 2283, 2284, 2320, 2319
1626, 1780, 1781, 1817, 1816, 2284, 2285, 2321, 2320
1627, 1781, 1782, 1818, 1817, 2285, 2286, 2322, 2321
1628, 1782, 1783, 1819, 1818, 2286, 2287, 2323, 2322
1629, 1783, 1784, 1820, 1819, 2287, 2288, 2324, 2323
1630, 1784, 1785, 1821, 1820, 2288, 2289, 2325, 2324
1631, 1785, 1786, 1822, 1821, 2289, 2290, 2326, 2325
1632, 1786, 1787, 1823, 1822, 2290, 2291, 2327, 2326
1633, 1787, 1788, 1824, 1823, 2291, 2292, 2328, 2327
1634, 1788, 1789, 1825, 1824, 2292, 2293, 2329, 2328
1635, 1789, 1790, 1826, 1825, 2293, 2294, 2330, 2329
1636, 1790, 1791, 1827, 1826, 2294, 2295, 2331, 2330
1637, 1791, 1792, 1828, 1827, 2295, 2296, 2332, 2331
1638, 1792, 1793, 1829, 1828, 2296, 2297, 2333, 2332
1639, 1793, 1794, 1830, 1829, 2297, 2298, 2334, 2333
1640, 1794, 1795, 1831, 1830, 2298, 2299, 2335, 2334
1641, 1795, 1796, 1832, 1831, 2299, 2300, 2336, 2335
1642, 1796, 1797, 1833, 1832, 2300, 2301, 2337, 2336
1643, 1797, 1798, 1834, 1833, 2301, 2302, 2338, 2337
1644, 1798, 1799, 1835, 1834, 2302, 2303, 2339, 2338
1645, 1799, 1800, 1836, 1835, 2303, 2304, 2340, 2339
1646, 1801, 1802, 1838, 1837, 2305, 2306, 2342, 2341
1647, 1802, 1803, 1839, 1838, 2306, 2307, 2343, 2342
1648, 1803, 1804, 1840, 1839, 2307, 2308, 2344, 2343
1649, 1804, 1805, 1841, 1840, 2308, 2309, 2345, 2344
1650, 1805, 1806, 1842, 1841, 2309, 2310, 2346, 2345
1651, 1806, 1807, 1843, 1842, 2310, 2311, 2347, 2346
1652, 1807, 1808, 1844, 1843, 2311, 2312, 2348, 2347
1653, 1808, 1809, 1845, 1844, 2312, 2313, 2349, 2348
1654, 1809, 1810, 1846, 1845, 2313, 2314, 2350, 2349
1655, 1810, 1811, 1847, 1846, 2314, 2315, 2351, 2350
1656, 1811, 1812, 1848, 1847, 2315, 2316, 2352, 2351
1657, 1812, 1813, 1849, 1848, 2316, 2317, 2353, 2352
1658, 1813, 1814, 1850, 1849, 2317, 2318, 2354, 2353
1659, 1814, 1815, 1851, 1850, 2318, 2319, 2355, 2354
1660, 1815, 1816, 1852, 1851, 2319, 2320, 2356, 2355
1661, 1816, 1817, 1853, 1852, 2320, 2321, 2357, 2356
1662, 1817, 1818, 1854, 1853, 2321, 2322, 2358, 2357
1663, 1818, 1819, 1855, 1854, 2322, 2323, 2359, 2358
1664, 1819, 1820, 1856, 1855, 2323, 2324, 2360, 2359
1665, 1820, 1821, 1857, 1856, 2324, 2325, 2361, 2360
1666, 1821, 1822, 1858, 1857, 2325, 2326, 2362, 2361
1667, 1822, 1823, 1859, 1858, 2326, 2327, 2363, 2362
1668, 1823, 1824, 1860, 1859, 2327, 2328, 2364, 2363
1669, 1824, 1825, 1861, 1860, 2328, 2329, 2365, 2364
1670, 1825, 1826, 1862, 1861, 2329, 2330, 2366, 2365
1671, 1826, 1827, 1863, 1862, 2330, 2331, 2367, 2366
1672, 1827, 1828, 1864, 1863, 2331, 2332, 2368, 2367
1673, 1828, 1829, 1865, 1864, 2332, 2333, 2369, 2368
1674, 1829, 1830, 1866, 1865, 2333, 2334, 2370, 2369
1675, 1830, 1831, 1867, 1866, 2334, 2335, 2371, 2370
1676, 1831, 1832, 1868, 1867, 2335, 2336, 2372, 2371
1677, 1832, 1833, 1869, 1868, 2336, 2337, 2373, 2372
1678, 1833, 1834, 1870, 1869, 2337, 2338, 2374, 2373
1679, 1834, 1835, 1871, 1870, 2338, 2339, 2375, 2374
1680, 1835, 1836, 1872, 1871, 2339, 2340, 2376, 2375
1681, 1837, 1838, 1874, 1873, 2341, 2342, 2378, 2377
1682, 1838, 1839, 1875, 1874, 2342, 2343, 2379, 2378
1683, 1839, 1840, 1876, 1875, 2343, 2344, 2380, 2379
1684, 1840, 1841, 1877, 1876, 2344, 2345, 2381, 2380
1685, 1841, 1842, 1878, 1877, 2345, 2346, 2382, 2381
1686, 1842, 1843, 1879, 1878, 2346, 2347, 2383, 2382
1687, 1843, 1844, 1880, 1879, 2347, 2348, 2384, 2383
1688, 1844, 1845, 1881, 1880, 2348, 2349, 2385, 2384
1689, 1845, 1846, 1882, 1881, 2349, 2350, 2386, 2385
1690, 1846, 1847, 1883, 1882, 2350, 2351, 2387, 2386
1691, 1847, 1848, 1884, 1883, 2351, 2352, 2388, 2387
1692, 1848, 1849, 1885, 1884, 2352, 2353, 2389, 2388
1693, 1849, 1850, 1886, 1885, 2353, 2354, 2390, 2389
1694, 1850, 1851, 1887, 1886, 2354, 2355, 2391, 2390
1695, 1851, 1852, 1888, 1887, 2355, 2356, 2392, 2391
1696, 1852, 1853, 1889, 1888, 2356, 2357, 2393, 2392
1697, 1853, 1854, 1890, 1889, 2357, 2358, 2394, 2393
1698, 1854, 1855, 1891, 1890, 2358, 2359, 2395, 2394
1699, 1855, 1856, 1892, 1891, 2359, 2360, 2396, 2395
1700, 1856, 1857, 1893, 1892, 2360, 2361, 2397, 2396
1701, 1857, 1858, 1894, 1893, 2361, 2362, 2398, 2397
1702, 1858, 1859, 1895, 1894, 2362, 2363, 2399, 2398
1703, 1859, 1860, 1896, 1895, 2363, 2364, 2400, 2399
1704, 1860, 1861, 1897, 1896, 2364, 2365, 2401, 2400
1705, 1861, 1862, 1898, 1897, 2365, 2366, 2402, 2401
1706, 1862, 1863, 1899, 1898, 2366, 2367, 2403, 2402
1707, 1863, 1864, 1900, 1899, 2367, 2368, 2404, 2403
1708, 1864, 1865, 1901, 1900, 2368, 2369, 2405, 2404
1709, 1865, 1866, 1902, 1901, 2369, 2370, 2406, 2405
1710, 1866, 1867, 1903, 1902, 2370, 2371, 2407, 2406
1711, 1867, 1868, 1904, 1903, 2371, 2372, 2408, 2407
1712, 1868, 1869, 1905, 1904, 2372, 2373, 2409, 2408
1713, 1869, 1870, 1906, 1905, 2373, 2374, 2410, 2409
1714, 1870, 1871, 1907, 1906, 2374, 2375, 2411, 2410
1715, 1871, 1872, 1908, 1907, 2375, 2376, 2412, 2411
1716, 1873, 1874, 1910, 1909, 2377, 2378, 2414, 2413
1717, 1874, 1875, 1911, 1910, 2378, 2379, 2415, 2414
1718, 1875, 1876, 1912, 1911, 2379, 2380, 2416, 2415
1719, 1876, 1877, 1913, 1912, 2380, 2381, 2417, 2416
1720, 1877, 1878, 1914, 1913, 2381, 2382, 2418, 2417
1721, 1878, 1879, 1915, 1914, 2382, 2383, 2419, 2418
1722, 1879, 1880, 1916, 1915, 2383, 2384, 2420, 2419
1723, 1880, 1881, 1917, 1916, 2384, 2385, 2421, 2420
1724, 1881, 1882, 1918, 1917, 2385, 2386, 2422, 2421
1725, 1882, 1883, 1919, 1918, 2386, 2387, 2423, 2422
1726, 1883, 1884, 1920, 1919, 2387, 2388, 2424, 2423
1727, 1884, 1885, 1921, 1920, 2388, 2389, 2425, 2424
1728, 1885, 1886, 1922, 1921, 2389, 2390, 2426, 2425
1729, 1886, 1887, 1923, 1922, 2390, 2391, 2427, 2426
1730, 1887, 1888, 1924, 1923, 2391, 2392, 2428, 2427
1731, 1888, 1889, 1925, 1924, 2392, 2393, 2429, 2428
1732, 1889, 1890, 1926, 1925, 2393, 2394, 2430, 2429
1733, 1890, 1891, 1927, 1926, 2394, 2395, 2431, 2430
1734, 1891, 1892, 1928, 1927, 2395, 2396, 2432, 2431
1735, 1892, 1893, 1929, 1928, 2396, 2397, 2433, 2432
1736, 1893, 1894, 1930, 1929, 2397, 2398, 2434, 2433
1737, 1894, 1895, 1931, 1930, 2398, 2399, 2435, 2434
1738, 1895, 1896, 1932, 1931, 2399, 2400, 2436, 2435
1739, 1896, 1897, 1933, 1932, 2400, 2401, 2437, 2436
1740, 1897, 1898, 1934, 1933, 2401, 2402, 2438, 2437
1741, 1898, 1899, 1935, 1934, 2402, 2403, 2439, 2438
1742, 1899, 1900, 1936, 1935, 2403, 2404, 2440, 2439
1743, 1900, 1901, 1937, 1936, 2404, 2405, 2441, 2440
1744, 1901, 1902, 1938, 1937, 2405, 2406, 2442, 2441
1745, 1902, 1903, 1939, 1938, 2406, 2407, 2443, 2442
1746, 1903, 1904, 1940, 1939, 2407, 2408, 2444, 2443
1747, 1904, 1905, 1941, 1940, 2408, 2409, 2445, 2444
1748, 1905, 1906, 1942, 1941, 2409, 2410, 2446, 2445
1749, 1906, 1907, 1943, 1942, 2410, 2411, 2447, 2446
1750, 1907, 1908, 1944, 1943, 2411, 2412, 2448, 2447
1751, 1909, 1910, 1946, 1945, 2413, 2414, 2450, 2449
1752, 1910, 1911, 1947, 1946, 2414, 2415, 2451, 2450
1753, 1911, 1912, 1948, 1947, 2415, 2416, 2452, 2451
1754, 1912, 1913, 1949, 1948, 2416, 2417, 2453, 2452
1755, 1913, 1914, 1950, 1949, 2417, 2418, 2454, 2453
1756, 1914, 1915, 1951, 1950, 2418, 2419, 2455, 2454
1757, 1915, 1916, 1952, 1951, 2419, 2420, 2456, 2455
1758, 1916, 1917, 1953, 1952, 2420, 2421, 2457, 2456
1759, 1917, 1918, 1954, 1953, 2421, 2422, 2458, 2457
1760, 1918, 1919, 1955, 1954, 2422, 2423, 2459, 2458
1761, 1919, 1920, 1956, 1955, 2423, 2424, 2460, 2459
1762, 1920, 1921, 1957, 1956, 2424, 2425, 2461, 2460
1763, 1921, 1922, 1958, 1957, 2425, 2426, 2462, 2461
1764, 1922, 1923, 1959, 1958, 2426, 2427, 2463, 2462
1765, 1923, 1924, 1960, 1959, 2427, 2428, 2464, 2463
1766, 1924, 1925, 1961, 1960, 2428, 2429, 2465, 2464
1767, 1925, 1926, 1962, 1961, 2429, 2430, 2466, 2465
1768, 1926, 1927, 1963, 1962, 2430, 2431, 2467, 2466
1769, 1927, 1928, 1964, 1963, 2431, 2432, 2468, 2467
1770, 1928, 1929, 1965, 1964, 2432, 2433, 2469, 2468
1771, 1929, 1930, 1966, 1965, 2433, 2434, 2470, 2469
1772, 1930, 1931, 1967, 1966, 2434, 2435, 2471, 2470
1773, 1931, 1932, 1968, 1967, 2435, 2436, 2472, 2471
1774, 1932, 1933, 1969, 1968, 2436, 2437, 2473, 2472
1775, 1933, 1934, 1970, 1969, 2437, 2438, 2474, 2473
1776, 1934, 1935, 1971, 1970, 2438, 2439, 2475, 2474
1777, 1935, 1936, 1972, 1971, 2439, 2440, 2476, 2475
1778, 1936, 1937, 1973, 1972, 2440, 2441, 2477, 2476
1779, 1937, 1938, 1974, 1973, 2441, 2442, 2478, 2477
1780, 1938, 1939, 1975, 1974, 2442, 2443, 2479, 2478
1781, 1939, 1940, 1976, 1975, 2443, 2444, 2480, 2479
1782, 1940, 1941, 1977, 1976, 2444, 2445, 2481, 2480
1783, 1941, 1942, 1978, 1977, 2445, 2446, 2482, 2481
1784, 1942, 1943, 1979, 1978, 2446, 2447, 2483, 2482
1785, 1943, 1944, 1980, 1979, 2447, 2448, 2484, 2483
1786, 1945, 1946, 1982, 1981, 2449, 2450, 2486, 2485
1787, 1946, 1947, 1983, 1982, 2450, 2451, 2487, 2486
1788, 1947, 1948, 1984, 1983, 2451, 2452, 2488, 2487
1789, 1948, 1949, 1985, 1984, 2452, 2453, 2489, 2488
1790, 1949, 1950, 1986, 1985, 2453, 2454, 2490, 2489
1791, 1950, 1951, 1987, 1986, 2454, 2455, 2491, 2490
1792, 1951, 1952, 1988, 1987, 2455, 2456, 2492, 2491
1793, 1952, 1953, 1989, 1988, 2456, 2457, 2493, 2492
1794, 1953, 1954, 1990, 1989, 2457, 2458, 2494, 2493
1795, 1954, 1955, 1991, 1990, 2458, 2459, 2495, 2494
1796, 1955, 1956, 1992, 1991, 2459, 2460, 2496, 2495
1797, 1956, 1957, 1993, 1992, 2460, 2461, 2497, 2496
1798, 1957, 1958, 1994, 1993, 2461, 2462, 2498, 2497
1799, 1958, 1959, 1995, 1994, 2462, 2463, 2499, 2498
1800, 1959, 1960, 1996, 1995, 2463, 2464, 2500, 2499
1801, 1960, 1961, 1997, 1996, 2464, 2465, 2501, 2500
1802, 1961, 1962, 1998, 1997, 2465, 2466, 2502, 2501
1803, 1962, 1963, 1999, 1998, 2466, 2467, 2503, 2502
1804, 1963, 1964, 2000, 1999, 2467, 2468, 2504, 2503
1805, 1964, 1965, 2001, 2000, 2468, 2469, 2505, 2504
1806, 1965, 1966, 2002, 2001, 2469, 2470, 2506, 2505
1807, 1966, 1967, 2003, 2002, 2470, 2471, 2507, 2506
1808, 1967, 1968, 2004, 2003, 2471, 2472, 2508, 2507
1809, 1968, 1969, 2005, 2004, 2472, 2473, 2509, 2508
1810, 1969, 1970, 2006, 2005, 2473, 2474, 2510, 2509
1811, 1970, 1971, 2007, 2006, 2474, 2475, 2511, 2510
1812, 1971, 1972, 2008, 2007, 2475, 2476, 2512, 2511
1813, 1972, 1973, 2009, 2008, 2476, 2477, 2513, 2512
1814, 1973, 1974, 2010, 2009, 2477, 2478, 2514, 2513
1815, 1974, 1975, 2011, 2010, 2478, 2479, 2515, 2514
1816, 1975, 1976, 2012, 2011, 2479, 2480, 2516, 2515
1817, 1976, 1977, 2013, 2012, 2480, 2481, 2517, 2516
1818, 1977, 1978, 2014, 2013, 2481, 2482, 2518, 2517
1819, 1978, 1979, 2015, 2014, 2482, 2483, 2519, 2518
1820, 1979, 1980, 2016, 2015, 2483, 2484, 2520, 2519
1821, 2017, 2018, 2054, 2053, 2521, 2522, 2558, 2557
1822, 2018, 2019, 2055, 2054, 2522, 2523, 2559, 2558
1823, 2019, 2020, 2056, 2055, 2523, 2524, 2560, 2559
1824, 2020, 2021, 2057, 2056, 2524, 2525, 2561, 2560
1825, 2021, 2022, 2058, 2057, 2525, 2526, 2562, 2561
1826, 2022, 2023, 2059, 2058, 2526, 2527, 2563, 2562
1827, 2023, 2024, 2060, 2059, 2527, 2528, 2564, 2563
1828, 2024, 2025, 2061, 2060, 2528, 2529, 2565, 2564
1829, 2025, 2026, 2062, 2061, 2529, 2530, 2566, 2565
1830, 2026, 2027, 2063, 2062, 2530, 2531, 2567, 2566
1831, 2027, 2028, 2064, 2063, 2531, 2532, 2568, 2567
1832, 2028, 2029, 2065, 2064, 2532, 2533, 2569, 2568
1833, 2029, 2030, 2066, 2065, 2533, 2534, 2570, 2569
1834, 2030, 2031, 2067, 2066, 2534, 2535, 2571, 2570
1835, 2031, 2032, 2068, 2067, 2535, 2536, 2572, 2571
1836, 2032, 2033, 2069, 2068, 2536, 2537, 2573, 2572
1837, 2033, 2034, 2070, 2069, 2537, 2538, 2574, 2573
1838, 2034, 2035, 2071, 2070, 2538, 2539, 2575, 2574
1839, 2035, 2036, 2072, 2071, 2539, 2540, 2576, 2575
1840, 2036, 2037, 2073, 2072, 2540, 2541, 2577, 2576
1841, 2037, 2038, 2074, 2073, 2541, 2542, 2578, 2577
1842, 2038, 2039, 2075, 2074, 2542, 2543, 2579, 2578
1843, 2039, 2040, 2076, 2075, 2543, 2544, 2580, 2579
1844, 2040, 2041, 2077, 2076, 2544, 2545, 2581, 2580
1845, 2041, 2042, 2078, 2077, 2545, 2546, 2582, 2581
1846, 2042, 2043, 2079, 2078, 2546, 2547, 2583, 2582
1847, 2043, 2044, 2080, 2079, 2547, 2548, 2584, 2583
1848, 2044, 2045, 2081, 2080, 2548, 2549, 2585, 2584
1849, 2045, 2046, 2082, 2081, 2549, 2550, 2586, 2585
1850, 2046, 2047, 2083, 2082, 2550, 2551, 2587, 2586
1851, 2047, 2048, 2084, 2083, 2551, 2552, 2588, 2587
1852, 2048, 2049, 2085, 2084, 2552, 2553, 2589, 2588
1853, 2049, 2050, 2086, 2085, 2553, 2554, 2590, 2589
1854, 2050, 2051, 2087, 2086, 2554, 2555, 2591, 2590
1855, 2051, 2052, 2088, 2087, 2555, 2556, 2592, 2591
1856, 2053, 2054, 2090, 2089, 2557, 2558, 2594, 2593
1857, 2054, 2055, 2091, 2090, 2558, 2559, 2595, 2594
1858, 2055, 2056, 2092, 2091, 2559, 2560, 2596, 2595
1859, 2056, 2057, 2093, 2092, 2560, 2561, 2597, 2596
1860, 2057, 2058, 2094, 2093, 2561, 2562, 2598, 2597
1861, 2058, 2059, 2095, 2094, 2562, 2563, 2599, 2598
1862, 2059, 2060, 2096, 2095, 2563, 2564, 2600, 2599
1863, 2060, 2061, 2097, 2096, 2564, 2565, 2601, 2600
1864, 2061, 2062, 2098, 2097, 2565, 2566, 2602, 2601
1865, 2062, 2063, 2099, 2098, 2566, 2567, 2603, 2602
1866, 2063, 2064, 2100, 2099, 2567, 2568, 2604, 2603
1867, 2064, 2065, 2101, 2100, 2568, 2569, 2605, 2604
1868, 2065, 2066, 2102, 2101, 2569, 2570, 2606, 2605
1869, 2066, 2067, 2103, 2102, 2570, 2571, 2607, 2606
1870, 2067, 2068, 2104, 2103, 2571, 2572, 2608, 2607
1871, 2068, 2069, 2105, 2104, 2572, 2573, 2609, 2608
1872, 2069, 2070, 2106, 2105, 2573, 2574, 2610, 2609
1873, 2070, 2071, 2107, 2106, 2574, 2575, 2611, 2610
1874, 2071, 2072, 2108, 2107, 2575, 2576, 2612, 2611
1875, 2072, 2073, 2109, 2108, 2576, 2577, 2613, 2612
1876, 2073, 2074, 2110, 2109, 2577, 2578, 2614, 2613
1877, 2074, 2075, 2111, 2110, 2578, 2579, 2615, 2614
1878, 2075, 2076, 2112, 2111, 2579, 2580, 2616, 2615
1879, 2076, 2077, 2113, 2112, 2580, 2581, 2617, 2616
1880, 2077, 2078, 2114, 2113, 2581, 2582, 2618, 2617
1881, 2078, 2079, 2115, 2114, 2582, 2583, 2619, 2618
1882, 2079, 2080, 2116, 2115, 2583, 2584, 2620, 2619
1883, 2080, 2081, 2117, 2116, 2584, 2585, 2621, 2620
1884, 2081, 2082, 2118, 2117, 2585, 2586, 2622, 2621
1885, 2082, 2083, 2119, 2118, 2586, 2587, 2623, 2622
1886, 2083, 2084, 2120, 2119, 2587, 2588, 2624, 2623
1887, 2084, 2085, 2121, 2120, 2588, 2589, 2625, 2624
1888, 2085, 2086, 2122, 2121, 2589, 2590, 2626, 2625
1889, 2086, 2087, 2123, 2122, 2590, 2591, 2627, 2626
1890, 2087, 2088, 2124, 2123, 2591, 2592, 2628, 2627
1891, 2089, 2090, 2126, 2125, 2593, 2594, 2630, 2629
1892, 2090, 2091, 2127, 2126, 2594, 2595, 2631, 2630
1893, 2091, 2092, 2128, 2127, 2595, 2596, 2632, 2631
1894, 2092, 2093, 2129, 2128, 2596, 2597, 2633, 2632
1895, 2093, 2094, 2130, 2129, 2597, 2598, 2634, 2633
1896, 2094, 2095, 2131, 2130, 2598, 2599, 2635, 2634
1897, 2095, 2096, 2132, 2131, 2599, 2600, 2636, 2635
1898, 2096, 2097, 2133, 2132, 2600, 2601, 2637, 2636
1899, 2097, 2098, 2134, 2133, 2601, 2602, 2638, 2637
1900, 2098, 2099, 2135, 2134, 2602, 2603, 2639, 2638
1901, 2099, 2100, 2136, 2135, 2603, 2604, 2640, 2639
1902, 2100, 2101, 2137, 2136, 2604, 2605, 2641, 2640
1903, 2101, 2102, 2138, 2137, 2605, 2606, 2642, 2641
1904, 2102, 2103, 2139, 2138, 2606, 2607, 2643, 2642
1905, 2103, 2104, 2140, 2139, 2607, 2608, 2644, 2643
1906, 2104, 2105, 2141, 2140, 2608, 2609, 2645, 2644
1907, 2105, 2106, 2142, 2141, 2609, 2610, 2646, 2645
1908, 2106, 2107, 2143, 2142, 2610, 2611, 2647, 2646
1909, 2107, 2108, 2144, 2143, 2611, 2612, 2648, 2647
1910, 2108, 2109, 2145, 2144, 2612, 2613, 2649, 2648
1911, 2109, 2110, 2146, 2145, 2613, 2614, 2650, 2649
1912, 2110, 2111, 2147, 2146, 2614, 2615, 2651, 2650
1913, 2111, 2112, 2148, 2147, 2615, 2616, 2652, 2651
1914, 2112, 2113, 2149, 2148, 2616, 2617, 2653, 2652
1915, 2113, 2114, 2150, 2149, 2617, 2618, 2654, 2653
1916, 2114, 2115, 2151, 2150, 2618, 2619, 2655, 2654
1917, 2115, 2116, 2152, 2151, 2619, 2620, 2656, 2655
1918, 2116, 2117, 2153, 2152, 2620, 2621, 2657, 2656
1919, 2117, 2118, 2154, 2153, 2621, 2622, 2658, 2657
1920, 2118, 2119, 2155, 2154, 2622, 2623, 2659, 2658
1921, 2119, 2120, 2156, 2155, 2623, 2624, 2660, 2659
1922, 2120, 2121, 2157, 2156, 2624, 2625, 2661, 2660
1923, 2121, 2122, 2158, 2157, 2625, 2626, 2662, 2661
1924, 2122, 2123, 2159, 2158, 2626, 2627, 2663, 2662
1925, 2123, 2124, 2160, 2159, 2627, 2628, 2664, 2663
1926, 2125, 2126, 2162, 2161, 2629, 2630, 2666, 2665
1927, 2126, 2127, 2163, 2162, 2630, 2631, 2667, 2666
1928, 2127, 2128, 2164, 2163, 2631, 2632, 2668, 2667
1929, 2128, 2129, 2165, 2164, 2632, 2633, 2669, 2668
1930, 2129, 2130, 2166, 2165, 2633, 2634, 2670, 2669
1931, 2130, 2131, 2167, 2166, 2634, 2635, 2671, 2670
1932, 2131, 2132, 2168, 2167, 2635, 2636, 2672, 2671
1933, 2132, 2133, 2169, 2168, 2636, 2637, 2673, 2672
1934, 2133, 2134, 2170, 2169, 2637, 2638, 2674, 2673
1935, 2134, 2135, 2171, 2170, 2638, 2639, 2675, 2674
1936, 2135, 2136, 2172, 2171, 2639, 2640, 2676, 2675
1937, 2136, 2137, 2173, 2172, 2640, 2641, 2677, 2676
1938, 2137, 2138, 2174, 2173, 2641, 2642, 2678, 2677
1939, 2138, 2139, 2175, 2174, 2642, 2643, 2679, 2678
1940, 2139, 2140, 2176, 2175, 2643, 2644, 2680, 2679
1941, 2140, 2141, 2177, 2176, 2644, 2645, 2681, 2680
1942, 2141, 2142, 2178, 2177, 2645, 2646, 2682, 2681
1943, 2142, 2143, 2179, 2178, 2646, 2647, 2683, 2682
1944, 2143, 2144, 2180, 2179, 2647, 2648, 2684, 2683
1945, 2144, 2145, 2181, 2180, 2648, 2649, 2685, 2684
1946, 2145, 2146, 2182, 2181, 2649, 2650, 2686, 2685
1947, 2146, 2147, 2183, 2182, 2650, 2651, 2687, 2686
1948, 2147, 2148, 2184, 2183, 2651, 2652, 2688, 2687
1949, 2148, 2149, 2185, 2184, 2652, 2653, 2689, 2688
1950, 2149, 2150, 2186, 2185, 2653, 2654, 2690, 2689
1951, 2150, 2151, 2187, 2186, 2654, 2655, 2691, 2690
1952, 2151, 2152, 2188, 2187, 2655, 2656, 2692, 2691
1953, 2152, 2153, 2189, 2188, 2656, 2657, 2693, 2692
1954, 2153, 2154, 2190, 2189, 2657, 2658, 2694, 2693
1955, 2154, 2155, 2191, 2190, 2658, 2659, 2695, 2694
1956, 2155, 2156, 2192, 2191, 2659, 2660, 2696, 2695
1957, 2156, 2157, 2193, 2192, 2660, 2661, 2697, 2696
1958, 2157, 2158, 2194, 2193, 2661, 2662, 2698, 2697
1959, 2158, 2159, 2195, 2194, 2662, 2663, 2699, 2698
1960, 2159, 2160, 2196, 2195, 2663, 2664, 2700, 2699
1961, 2161, 2162, 2198, 2197, 2665, 2666, 2702, 2701
1962, 2162, 2163, 2199, 2198, 2666, 2667, 2703, 2702
1963, 2163, 2164, 2200, 2199, 2667, 2668, 2704, 2703
1964, 2164, 2165, 2201, 2200, 2668, 2669, 2705, 2704
1965, 2165, 2166, 2202, 2201, 2669, 2670, 2706, 2705
1966, 2166, 2167, 2203, 2202, 2670, 2671, 2707, 2706
1967, 2167, 2168, 2204, 2203, 2671, 2672, 2708, 2707
1968, 2168, 2169, 2205, 2204, 2672, 2673, 2709, 2708
1969, 2169, 2170, 2206, 2205, 2673, 2674, 2710, 2709
1970, 2170, 2171, 2207, 2206, 2674, 2675, 2711, 2710
1971, 2171, 2172, 2208, 2207, 2675, 2676, 2712, 2711
1972, 2172, 2173, 2209, 2208, 2676, 2677, 2713, 2712
1973, 2173, 2174, 2210, 2209, 2677, 2678, 2714, 2713
1974, 2174, 2175, 2211, 2210, 2678, 2679, 2715, 2714
1975, 2175, 2176, 2212, 2211, 2679, 2680, 2716, 2715
1976, 2176, 2177, 2213, 2212, 2680, 2681, 2717, 2716
1977, 2177, 2178, 2214, 2213, 2681, 2682, 2718, 2717
1978, 2178, 2179, 2215, 2214, 2682, 2683, 2719, 2718
1979, 2179, 2180, 2216, 2215, 2683, 2684, 2720, 2719
1980, 2180, 2181, 2217, 2216, 2684, 2685, 2721, 2720
1981, 2181, 2182, 2218, 2217, 2685, 2686, 2722, 2721
1982, 2182, 2183, 2219, 2218, 2686, 2687, 2723, 2722
1983, 2183, 2184, 2220, 2219, 2687, 2688, 2724, 2723
1984, 2184, 2185, 2221, 2220, 2688, 2689, 2725, 2724
1985, 2185, 2186, 2222, 2221, 2689, 2690, 2726, 2725
1986, 2186, 2187, 2223, 2222, 2690, 2691, 2727, 2726
1987, 2187, 2188, 2224, 2223, 2691, 2692, 2728, 2727
1988, 2188, 2189, 2225, 2224, 2692, 2693, 2729, 2728
1989, 2189, 2190, 2226, 2225, 2693, 2694, 2730, 2729
1990, 2190, 2191, 2227, 2226, 2694, 2695, 2731, 2730
1991, 2191, 2192, 2228, 2227, 2695, 2696, 2732, 2731
1992, 2192, 2193, 2229, 2228, 2696, 2697, 2733, 2732
1993, 2193, 2194, 2230, 2229, 2697, 2698, 2734, 2733
1994, 2194, 2195, 2231, 2230, 2698, 2699, 2735, 2734
1995, 2195, 2196, 2232, 2231, 2699, 2700, 2736, 2735
1996, 2197, 2198, 2234, 2233, 2701, 2702, 2738, 2737
1997, 2198, 2199, 2235, 2234, 2702, 2703, 2739, 2738
1998, 2199, 2200, 2236, 2235, 2703, 2704, 2740, 2739
1999, 2200, 2201, 2237, 2236, 2704, 2705, 2741, 2740
2000, 2201, 2202, 2238, 2237, 2705, 2706, 2742, 2741
2001, 2202, 2203, 2239, 2238, 2706, 2707, 2743, 2742
2002, 2203, 2204, 2240, 2239, 2707, 2708, 2744, 2743
2003, 2204, 2205, 2241, 2240, 2708, 2709, 2745, 2744
2004, 2205, 2206, 2242, 2241, 2709, 2710, 2746, 2745
2005, 2206, 2207, 2243, 2242, 2710, 2711, 2747, 2746
2006, 2207, 2208, 2244, 2243, 2711, 2712, 2748, 2747
2007, 2208, 2209, 2245, 2244, 2712, 2713, 2749, 2748
2008, 2209, 2210, 2246, 2245, 2713, 2714, 2750, 2749
2009, 2210, 2211, 2247, 2246, 2714, 2715, 2751, 2750
2010, 2211, 2212, 2248, 2247, 2715, 2716, 2752, 2751
2011, 2212, 2213, 2249, 2248, 2716, 2717, 2753, 2752
2012, 2213, 2214, 2250, 2249, 2717, 2718, 2754, 2753
2013, 2214, 2215, 2251, 2250, 2718, 2719, 2755, 2754
2014, 2215, 2216, 2252, 2251, 2719, 2720, 2756, 2755
2015, 2216, 2217, 2253, 2252, 2720, 2721, 2757, 2756
2016, 2217, 2218, 2254, 2253, 2721, 2722, 2758, 2757
2017, 2218, 2219, 2255, 2254, 2722, 2723, 2759, 2758
2018, 2219, 2220, 2256, 2255, 2723, 2724, 2760, 2759
2019, 2220, 2221, 2257, 2256, 2724, 2725, 2761, 2760
2020, 2221, 2222, 2258, 2257, 2725, 2726, 2762, 2761
2021, 2222, 2223, 2259, 2258, 2726, 2727, 2763, 2762
2022, 2223, 2224, 2260, 2259, 2727, 2728, 2764, 2763
2023, 2224, 2225, 2261, 2260, 2728, 2729, 2765, 2764
2024, 2225, 2226, 2262, 2261, 2729, 2730, 2766, 2765
2025, 2226, 2227, 2263, 2262, 2730, 2731, 2767, 2766
2026, 2227, 2228, 2264, 2263, 2731, 2732, 2768, 2767
2027, 2228, 2229, 2265, 2264, 2732, 2733, 2769, 2768
2028, 2229, 2230, 2266, 2265, 2733, 2734, 2770, 2769
2029, 2230, 2231, 2267, 2266, 2734, 2735, 2771, 2770
2030, 2231, 2232, 2268, 2267, 2735, 2736, 2772, 2771
2031, 2233, 2234, 2270, 2269, 2737, 2738, 2774, 2773
2032, 2234, 2235, 2271, 2270, 2738, 2739, 2775, 2774
2033, 2235, 2236, 2272, 2271, 2739, 2740, 2776, 2775
2034, 2236, 2237, 2273, 2272, 2740, 2741, 2777, 2776
2035, 2237, 2238, 2274, 2273, 2741, 2742, 2778, 2777
2036, 2238, 2239, 2275, 2274, 2742, 2743, 2779, 2778
2037, 2239, 2240, 2276, 2275, 2743, 2744, 2780, 2779
2038, 2240, 2241, 2277, 2276, 2744, 2745, 2781, 2780
2039, 2241, 2242, 2278, 2277, 2745, 2746, 2782, 2781
2040, 2242, 2243, 2279, 2278, 2746, 2747, 2783, 2782
2041, 2243, 2244, 2280, 2279, 2747, 2748, 2784, 2783
2042, 2244, 2245, 2281, 2280, 2748, 2749, 2785, 2784
2043, 2245, 2246, 2282, 2281, 2749, 2750, 2786, 2785
2044, 2246, 2247, 2283, 2282, 2750, 2751, 2787, 2786
2045, 2247, 2248, 2284, 2283, 2751, 2752, 2788, 2787
2046, 2248, 2249, 2285, 2284, 2752, 2753, 2789, 2788
2047, 2249, 2250, 2286, 2285, 2753, 2754, 2790, 2789
2048, 2250, 2251, 2287, 2286, 2754, 2755, 2791, 2790
2049, 2251, 2252, 2288, 2287, 2755, 2756, 2792, 2791
2050, 2252, 2253, 2289, 2288, 2756, 2757, 2793, 2792
2051, 2253, 2254, 2290, 2289, 2757, 2758, 2794, 2793
2052, 2254, 2255, 2291, 2290, 2758, 2759, 2795, 2794
2053, 2255, 2256, 2292, 2291, 2759, 2760, 2796, 2795
2054, 2256, 2257, 2293, 2292, 2760, 2761, 2797, 2796
2055, 2257, 2258, 2294, 2293, 2761, 2762, 2798, 2797
2056, 2258, 2259, 2295, 2294, 2762, 2763, 2799, 2798
2057, 2259, 2260, 2296, 2295, 2763, 2764, 2800, 2799
2058, 2260, 2261, 2297, 2296, 2764, 2765, 2801, 2800
2059, 2261, 2262, 2298, 2297, 2765, 2766, 2802, 2801
2060, 2262, 2263, 2299, 2298, 2766, 2767, 2803, 2802
2061, 2263, 2264, 2300, 2299, 2767, 2768, 2804, 2803
2062, 2264, 2265, 2301, 2300, 2768, 2769, 2805, 2804
2063, 2265, 2266, 2302, 2301, 2769, 2770, 2806, 2805
2064, 2266, 2267, 2303, 2302, 2770, 2771, 2807, 2806
2065, 2267, 2268, 2304, 2303, 2771, 2772, 2808, 2807
2066, 2269, 2270, 2306, 2305, 2773, 2774, 2810, 2809
2067, 2270, 2271, 2307, 2306, 2774, 2775, 2811, 2810
2068, 2271, 2272, 2308, 2307, 2775, 2776, 2812, 2811
2069, 2272, 2273, 2309, 2308, 2776, 2777, 2813, 2812
2070, 2273, 2274, 2310, 2309, 2777, 2778, 2814, 2813
2071, 2274, 2275, 2311, 2310, 2778, 2779, 2815, 2814
2072, 2275, 2276, 2312, 2311, 2779, 2780, 2816, 2815
2073, 2276, 2277, 2313, 2312, 2780, 2781, 2817, 2816
2074, 2277, 2278, 2314, 2313, 2781, 2782, 2818, 2817
2075, 2278, 2279, 2315, 2314, 2782, 2783, 2819, 2818
2076, 2279, 2280, 2316, 2315, 2783, 2784, 2820, 2819
2077, 2280, 2281, 2317, 2316, 2784, 2785, 2821, 2820
2078, 2281, 2282, 2318, 2317, 2785, 2786, 2822, 2821
2079, 2282, 2283, 2319, 2318, 2786, 2787, 2823, 2822
2080, 2283, 2284, 2320, 2319, 2787, 2788, 2824, 2823
2081, 2284, 2285, 2321, 2320, 2788, 2789, 2825, 2824
2082, 2285, 2286, 2322, 2321, 2789, 2790, 2826, 2825
2083, 2286, 2287, 2323, 2322, 2790, 2791, 2827, 2826
2084, 2287, 2288, 2324, 2323, 2791, 2792, 2828, 2827
2085, 2288, 2289, 2325, 2324, 2792, 2793, 2829, 2828
2086, 2289, 2290, 2326, 2325, 2793, 2794, 2830, 2829
2087, 2290, 2291, 2327, 2326, 2794, 2795, 2831, 2830
2088, 2291, 2292, 2328, 2327, 2795, 2796, 2832, 2831
2089, 2292, 2293, 2329, 2328, 2796, 2797, 2833, 2832
2090, 2293, 2294, 2330, 2329, 2797, 2798, 2834, 2833
2091, 2294, 2295, 2331, 2330, 2798, 2799, 2835, 2834
2092, 2295, 2296, 2332, 2331, 2799, 2800, 2836, 2835
2093, 2296, 2297, 2333, 2332, 2800, 2801, 2837, 2836
2094, 2297, 2298, 2334, 2333, 2801, 2802, 2838, 2837
2095, 2298, 2299, 2335, 2334, 2802, 2803, 2839, 2838
2096, 2299, 2300, 2336, 2335, 2803, 2804, 2840, 2839
2097, 2300, 2301, 2337, 2336, 2804, 2805, 2841, 2840
2098, 2301, 2302, 2338, 2337, 2805, 2806, 2842, 2841
2099, 2302, 2303, 2339, 2338, 2806, 2807, 2843, 2842
2100, 2303, 2304, 2340, 2339, 2807, 2808, 2844, 2843
2101, 2305, 2306, 2342, 2341, 2809, 2810, 2846, 2845
2102, 2306, 2307, 2343, 2342, 2810, 2811, 2847, 2846
2103, 2307, 2308, 2344, 2343, 2811, 2812, 2848, 2847
2104, 2308, 2309, 2345, 2344, 2812, 2813, 2849, 2848
2105, 2309, 2310, 2346, 2345, 2813, 2814, 2850, 2849
2106, 2310, 2311, 2347, 2346, 2814, 2815, 2851, 2850
2107, 2311, 2312, 2348, 2347, 2815, 2816, 2852, 2851
2108, 2312, 2313, 2349, 2348, 2816, 2817, 2853, 2852
2109, 2313, 2314, 2350, 2349, 2817, 2818, 2854, 2853
2110, 2314, 2315, 2351, 2350, 2818, 2819, 2855, 2854
2111, 2315, 2316, 2352, 2351, 2819, 2820, 2856, 2855
2112, 2316, 2317, 2353, 2352, 2820, 2821, 2857, 2856
2113, 2317, 2318, 2354, 2353, 2821, 2822, 2858, 2857
2114, 2318, 2319, 2355, 2354, 2822, 2823, 2859, 2858
2115, 2319, 2320, 2356, 2355, 2823, 2824, 2860, 2859
2116, 2320, 2321, 2357, 2356, 2824, 2825, 2861, 2860
2117, 2321, 2322, 2358, 2357, 2825, 2826, 2862, 2861
2118, 2322, 2323, 2359, 2358, 2826, 2827, 2863, 2862
2119, 2323, 2324, 2360, 2359, 2827, 2828, 2864, 2863
2120, 2324, 2325, 2361, 2360, 2828, 2829, 2865, 2864
2121, 2325, 2326, 2362, 2361, 2829, 2830, 2866, 2865
2122, 2326, 2327, 2363, 2362, 2830, 2831, 2867, 2866
2123, 2327, 2328, 2364, 2363, 2831, 2832, 2868, 2867
2124, 2328, 2329, 2365, 2364, 2832, 2833, 2869, 2868
2125, 2329, 2330, 2366, 2365, 2833, 2834, 2870, 2869
2126, 2330, 2331, 2367, 2366, 2834, 2835, 2871, 2870
2127, 2331, 2332, 2368, 2367, 2835, 2836, 2872, 2871
2128, 2332, 2333, 2369, 2368, 2836, 2837, 2873, 2872
2129, 2333, 2334, 2370, 2369, 2837, 2838, 2874, 2873
2130, 2334, 2335, 2371, 2370, 2838, 2839, 2875, 2874
2131, 2335, 2336, 2372, 2371, 2839, 2840, 2876, 2875
2132, 2336, 2337, 2373, 2372, 2840, 2841, 2877, 2876
2133, 2337, 2338, 2374, 2373, 2841, 2842, 2878, 2877
2134, 2338, 2339, 2375, 2374, 2842, 2843, 2879, 2878
2135, 2339, 2340, 2376, 2375, 2843, 2844, 2880, 2879
2136, 2341, 2342, 2378, 2377, 2845, 2846, 2882, 2881
2137, 2342, 2343, 2379, 2378, 2846, 2847, 2883, 2882
2138, 2343, 2344, 2380, 2379, 2847, 2848, 2884, 2883
2139, 2344, 2345, 2381, 2380, 2848, 2849, 2885, 2884
2140, 2345, 2346, 2382, 2381, 2849, 2850, 2886, 2885
2141, 2346, 2347, 2383, 2382, 2850, 2851, 2887, 2886
2142, 2347, 2348, 2384, 2383, 2851, 2852, 2888, 2887
2143, 2348, 2349, 2385, 2384, 2852, 2853, 2889, 2888
2144, 2349, 2350, 2386, 2385, 2853, 2854, 2890, 2889
2145, 2350, 2351, 2387, 2386, 2854, 2855, 2891, 2890
2146, 2351, 2352, 2388, 2387, 2855, 2856, 2892, 2891
2147, 2352, 2353, 2389, 2388, 2856, 2857, 2893, 2892
2148, 2353, 2354, 2390, 2389, 2857, 2858, 2894, 2893
2149, 2354, 2355, 2391, 2390, 2858, 2859, 2895, 2894
2150, 2355, 2356, 2392, 2391, 2859, 2860, 2896, 2895
2151, 2356, 2357, 2393, 2392, 2860, 2861, 2897, 2896
2152, 2357, 2358, 2394, 2393, 2861, 2862, 2898, 2897
2153, 2358, 2359, 2395, 2394, 2862, 2863, 2899, 2898
2154, 2359, 2360, 2396, 2395, 2863, 2864, 2900, 2899
2155, 2360, 2361, 2397, 2396, 2864, 2865, 2901, 2900
2156, 2361, 2362, 2398, 2397, 2865, 2866, 2902, 2901
2157, 2362, 2363, 2399, 2398, 2866, 2867, 2903, 2902
2158, 2363, 2364, 2400, 2399, 2867, 2868, 2904, 2903
2159, 2364, 2365, 2401, 2400, 2868, 2869, 2905, 2904
2160, 2365, 2366, 2402, 2401, 2869, 2870, 2906, 2905
2161, 2366, 2367, 2403, 2402, 2870, 2871, 2907, 2906
2162, 2367, 2368, 2404, 2403, 2871, 2872, 2908, 2907
2163, 2368, 2369, 2405, 2404, 2872, 2873, 2909, 2908
2164, 2369, 2370, 2406, 2405, 2873, 2874, 2910, 2909
2165, 2370, 2371, 2407, 2406, 2874, 2875, 2911, 2910
2166, 2371, 2372, 2408, 2407, 2875, 2876, 2912, 2911
2167, 2372, 2373, 2409, 2408, 2876, 2877, 2913, 2912
2168, 2373, 2374, 2410, 2409, 2877, 2878, 2914, 2913
2169, 2374, 2375, 2411, 2410, 2878, 2879, 2915, 2914
2170, 2375, 2376, 2412, 2411, 2879, 2880, 2916, 2915
2171, 2377, 2378, 2414, 2413, 2881, 2882, 2918, 2917
2172, 2378, 2379, 2415, 2414, 2882, 2883, 2919, 2918
2173, 2379, 2380, 2416, 2415, 2883, 2884, 2920, 2919
2174, 2380, 2381, 2417, 2416, 2884, 2885, 2921, 2920
2175, 2381, 2382, 2418, 2417, 2885, 2886, 2922, 2921
2176, 2382, 2383, 2419, 2418, 2886, 2887, 2923, 2922
2177, 2383, 2384, 2420, 2419, 2887, 2888, 2924, 2923
2178, 2384, 2385, 2421, 2420, 2888, 2889, 2925, 2924
2179, 2385, 2386, 2422, 2421, 2889, 2890, 2926, 2925
2180, 2386, 2387, 2423, 2422, 2890, 2891, 2927, 2926
2181, 2387, 2388, 2424, 2423, 2891, 2892, 2928, 2927
2182, 2388, 2389, 2425, 2424, 2892, 2893, 2929, 2928
2183, 2389, 2390, 2426, 2425, 2893, 2894, 2930, 2929
2184, 2390, 2391, 2427, 2426, 2894, 2895, 2931, 2930
2185, 2391, 2392, 2428, 2427, 2895, 2896, 2932, 2931
2186, 2392, 2393, 2429, 2428, 2896, 2897, 2933, 2932
2187, 2393, 2394, 2430, 2429, 2897, 2898, 2934, 2933
2188, 2394, 2395, 2431, 2430, 2898, 2899, 2935, 2934
2189, 2395, 2396, 2432, 2431, 2899, 2900, 2936, 2935
2190, 2396, 2397, 2433, 2432, 2900, 2901, 2937, 2936
2191, 2397, 2398, 2434, 2433, 2901, 2902, 2938, 2937
2192, 2398, 2399, 2435, 2434, 2902, 2903, 2939, 2938
2193, 2399, 2400, 2436, 2435, 2903, 2904, 2940, 2939
2194, 2400, 2401, 2437, 2436, 2904, 2905, 2941, 2940
2195, 2401, 2402, 2438, 2437, 2905, 2906, 2942, 2941
2196, 2402, 2403, 2439, 2438, 2906, 2907, 2943, 2942
2197, 2403, 2404, 2440, 2439, 2907, 2908, 2944, 2943
2198, 2404, 2405, 2441, 2440, 2908, 2909, 2945, 2944
2199, 2405, 2406, 2442, 2441, 2909, 2910, 2946, 2945
2200, 2406, 2407, 2443, 2442, 2910, 2911, 2947, 2946
2201, 2407, 2408, 2444, 2443, 2911, 2912, 2948, 2947
2202, 2408, 2409, 2445, 2444, 2912, 2913, 2949, 2948
2203, 2409, 2410, 2446, 2445, 2913, 2914, 2950, 2949
2204, 2410, 2411, 2447, 2446, 2914, 2915, 2951, 2950
2205, 2411, 2412, 2448, 2447, 2915, 2916, 2952, 2951
2206, 2413, 2414, 2450, 2449, 2917, 2918, 2954, 2953
2207, 2414, 2415, 2451, 2450, 2918, 2919, 2955, 2954
2208, 2415, 2416, 2452, 2451, 2919, 2920, 2956, 2955
2209, 2416, 2417, 2453, 2452, 2920, 2921, 2957, 2956
2210, 2417, 2418, 2454, 2453, 2921, 2922, 2958, 2957
2211, 2418, 2419, 2455, 2454, 2922, 2923, 2959, 2958
2212, 2419, 2420, 2456, 2455, 2923, 2924, 2960, 2959
2213, 2420, 2421, 2457, 2456, 2924, 2925, 2961, 2960
2214, 2421, 2422, 2458, 2457, 2925, 2926, 2962, 2961
2215, 2422, 2423, 2459, 2458, 2926, 2927, 2963, 2962
2216, 2423, 2424, 2460, 2459, 2927, 2928, 2964, 2963
2217, 2424, 2425, 2461, 2460, 2928, 2929, 2965, 2964
2218, 2425, 2426, 2462, 2461, 2929, 2930, 2966, 2965
2219, 2426, 2427, 2463, 2462, 2930, 2931, 2967, 2966
2220, 2427, 2428, 2464, 2463, 2931, 2932, 2968, 2967
2221, 2428, 2429, 2465, 2464, 2932, 2933, 2969, 2968
2222, 2429, 2430, 2466, 2465, 2933, 2934, 2970, 2969
2223, 2430, 2431, 2467, 2466, 2934, 2935, 2971, 2970
2224, 2431, 2432, 2468, 2467, 2935, 2936, 2972, 2971
2225, 2432, 2433, 2469, 2468, 2936, 2937, 2973, 2972
2226, 2433, 2434, 2470, 2469, 2937, 2938, 2974, 2973
2227, 2434, 2435, 2471, 2470, 2938, 2939, 2975, 2974
2228, 2435, 2436, 2472, 2471, 2939, 2940, 2976, 2975
2229, 2436, 2437, 2473, 2472, 2940, 2941, 2977, 2976
2230, 2437, 2438, 2474, 2473, 2941, 2942, 2978, 2977
2231, 2438, 2439, 2475, 2474, 2942, 2943, 2979, 2978
2232, 2439, 2440, 2476, 2475, 2943, 2944, 2980, 2979
2233, 2440, 2441, 2477, 2476, 2944, 2945, 2981, 2980
2234, 2441, 2442, 2478, 2477, 2945, 2946, 2982, 2981
2235, 2442, 2443, 2479, 2478, 2946, 2947, 2983, 2982
2236, 2443, 2444, 2480, 2479, 2947, 2948, 2984, 2983
2237, 2444, 2445, 2481, 2480, 2948, 2949, 2985, 2984
2238, 2445, 2446, 2482, 2481, 2949, 2950, 2986, 2985
2239, 2446, 2447, 2483, 2482, 2950, 2951, 2987, 2986
2240, 2447, 2448, 2484, 2483, 2951, 2952, 2988, 2987
2241, 2449, 2450, 2486, 2485, 2953, 2954, 2990, 2989
2242, 2450, 2451, 2487, 2486, 2954, 2955, 2991, 2990
2243, 2451, 2452, 2488, 2487, 2955, 2956, 2992, 2991
2244, 2452, 2453, 2489, 2488, 2956, 2957, 2993, 2992
2245, 2453, 2454, 2490, 2489, 2957, 2958, 2994, 2993
2246, 2454, 2455, 2491, 2490, 2958, 2959, 2995, 2994
2247, 2455, 2456, 2492, 2491, 2959, 2960, 2996, 2995
2248, 2456, 2457, 2493, 2492, 2960, 2961, 2997, 2996
2249, 2457, 2458, 2494, 2493, 2961, 2962, 2998, 2997
2250, 2458, 2459, 2495, 2494, 2962, 2963, 2999, 2998
2251, 2459, 2460, 2496, 2495, 2963, 2964, 3000, 2999
2252, 2460, 2461, 2497, 2496, 2964, 2965, 3001, 3000
2253, 2461, 2462, 2498, 2497, 2965, 2966, 3002, 3001
2254, 2462, 2463, 2499, 2498, 2966, 2967, 3003, 3002
2255, 2463, 2464, 2500, 2499, 2967, 2968, 3004, 3003
2256, 2464, 2465, 2501, 2500, 2968, 2969, 3005, 3004
2257, 2465, 2466, 2502, 2501, 2969, 2970, 3006, 3005
2258, 2466, 2467, 2503, 2502, 2970, 2971, 3007, 3006
2259, 2467, 2468, 2504, 2503, 2971, 2972, 3008, 3007
2260, 2468, 2469, 2505, 2504, 2972, 2973, 3009, 3008
2261, 2469, 2470, 2506, 2505, 2973, 2974, 3010, 3009
2262, 2470, 2471, 2507, 2506, 2974, 2975, 3011, 3010
2263, 2471, 2472, 2508, 2507, 2975, 2976, 3012, 3011
2264, 2472, 2473, 2509, 2508, 2976, 2977, 3013, 3012
2265, 2473, 2474, 2510, 2509, 2977, 2978, 3014, 3013
2266, 2474, 2475, 2511, 2510, 2978, 2979, 3015, 3014
2267, 2475, 2476, 2512, 2511, 2979, 2980, 3016, 3015
2268, 2476, 2477, 2513, 2512, 2980, 2981, 3017, 3016
2269, 2477, 2478, 2514, 2513, 2981, 2982, 3018, 3017
2270, 2478, 2479, 2515, 2514, 2982, 2983, 3019, 3018
2271, 2479, 2480, 2516, 2515, 2983, 2984, 3020, 3019
2272, 2480, 2481, 2517, 2516, 2984, 2985, 3021, 3020
2273, 2481, 2482, 2518, 2517, 2985, 2986, 3022, 3021
2274, 2482, 2483, 2519, 2518, 2986, 2987, 3023, 3022
2275, 2483, 2484, 2520, 2519, 2987, 2988, 3024, 3023
2276, 2521, 2522, 2558, 2557, 3025, 3026, 3062, 3061
2277, 2522, 2523, 2559, 2558, 3026, 3027, 3063, 3062
2278, 2523, 2524, 2560, 2559, 3027, 3028, 3064, 3063
2279, 2524, 2525, 2561, 2560, 3028, 3029, 3065, 3064
2280, 2525, 2526, 2562, 2561, 3029, 3030, 3066, 3065
2281, 2526, 2527, 2563, 2562, 3030, 3031, 3067, 3066
2282, 2527, 2528, 2564, 2563, 3031, 3032, 3068, 3067
2283, 2528, 2529, 2565, 2564, 3032, 3033, 3069, 3068
2284, 2529, 2530, 2566, 2565, 3033, 3034, 3070, 3069
2285, 2530, 2531, 2567, 2566, 3034, 3035, 3071, 3070
2286, 2531, 2532, 2568, 2567, 3035, 3036, 3072, 3071
2287, 2532, 2533, 2569, 2568, 3036, 3037, 3073, 3072
2288, 2533, 2534, 2570, 2569, 3037, 3038, 3074, 3073
2289, 2534, 2535, 2571, 2570, 3038, 3039, 3075, 3074
2290, 2535, 2536, 2572, 2571, 3039, 3040, 3076, 3075
2291, 2536, 2537, 2573, 2572, 3040, 3041, 3077, 3076
2292, 2537, 2538, 2574, 2573, 3041, 3042, 3078, 3077
2293, 2538, 2539, 2575, 2574, 3042, 3043, 3079, 3078
2294, 2539, 2540, 2576, 2575, 3043, 3044, 3080, 3079
2295, 2540, 2541, 2577, 2576, 3044, 3045, 3081, 3080
2296, 2541, 2542, 2578, 2577, 3045, 3046, 3082, 3081
2297, 2542, 2543, 2579, 2578, 3046, 3047, 3083, 3082
2298, 2543, 2544, 2580, 2579, 3047, 3048, 3084, 3083
2299, 2544, 2545, 2581, 2580, 3048, 3049, 3085, 3084
2300, 2545, 2546, 2582, 2581, 3049, 3050, 3086, 3085
2301, 2546, 2547, 2583, 2582, 3050, 3051, 3087, 3086
2302, 2547, 2548, 2584, 2583, 3051, 3052, 3088, 3087
2303, 2548, 2549, 2585, 2584, 3052, 3053, 3089, 3088
2304, 2549, 2550, 2586, 2585, 3053, 3054, 3090, 3089
2305, 2550, 2551, 2587, 2586, 3054, 3055, 3091, 3090
2306, 2551, 2552, 2588, 2587, 3055, 3056, 3092, 3091
2307, 2552, 2553, 2589, 2588, 3056, 3057, 3093, 3092
2308, 2553, 2554, 2590, 2589, 3057, 3058, 3094, 3093
2309, 2554, 2555, 2591, 2590, 3058, 3059, 3095, 3094
2310, 2555, 2556, 2592, 2591, 3059, 3060, 3096, 3095
2311, 2557, 2558, 2594, 2593, 3061, 3062, 3098, 3097
2312, 2558, 2559, 2595, 2594, 3062, 3063, 3099, 3098
2313, 2559, 2560, 2596, 2595, 3063, 3064, 3100, 3099
2314, 2560, 2561, 2597, 2596, 3064, 3065, 3101, 3100
2315, 2561, 2562, 2598, 2597, 3065, 3066, 3102, 3101
2316, 2562, 2563, 2599, 2598, 3066, 3067, 3103, 3102
2317, 2563, 2564, 2600, 2599, 3067, 3068, 3104, 3103
2318, 2564, 2565, 2601, 2600, 3068, 3069, 3105, 3104
2319, 2565, 2566, 2602, 2601, 3069, 3070, 3106, 3105
2320, 2566, 2567, 2603, 2602, 3070, 3071, 3107, 3106
2321, 2567, 2568, 2604, 2603, 3071, 3072, 3108, 3107
2322, 2568, 2569, 2605, 2604, 3072, 3073, 3109, 3108
2323, 2569, 2570, 2606, 2605, 3073, 3074, 3110, 3109
2324, 2570, 2571, 2607, 2606, 3074, 3075, 3111, 3110
2325, 2571, 2572, 2608, 2607, 3075, 3076, 3112, 3111
2326, 2572, 2573, 2609, 2608, 3076, 3077, 3113, 3112
2327, 2573, 2574, 2610, 2609, 3077, 3078, 3114, 3113
2328, 2574, 2575, 2611, 2610, 3078, 3079, 3115, 3114
2329, 2575, 2576, 2612, 2611, 3079, 3080, 3116, 3115
2330, 2576, 2577, 2613, 2612, 3080, 3081, 3117, 3116
2331, 2577, 2578, 2614, 2613, 3081, 3082, 3118, 3117
2332, 2578, 2579, 2615, 2614, 3082, 3083, 3119, 3118
2333, 2579, 2580, 2616, 2615, 3083, 3084, 3120, 3119
2334, 2580, 2581, 2617, 2616, 3084, 3085, 3121, 3120
2335, 2581, 2582, 2618, 2617, 3085, 3086, 3122, 3121
2336, 2582, 2583, 2619, 2618, 3086, 3087, 3123, 3122
2337, 2583, 2584, 2620, 2619, 3087, 3088, 3124, 3123
2338, 2584, 2585, 2621, 2620, 3088, 3089, 3125, 3124
2339, 2585, 2586, 2622, 2621, 3089, 3090, 3126, 3125
2340, 2586, 2587, 2623, 2622, 3090, 3091, 3127, 3126
2341, 2587, 2588, 2624, 2623, 3091, 3092, 3128, 3127
2342, 2588, 2589, 2625, 2624, 3092, 3093, 3129, 3128
2343, 2589, 2590, 2626, 2625, 3093, 3094, 3130, 3129
2344, 2590, 2591, 2627, 2626, 3094, 3095, 3131, 3130
2345, 2591, 2592, 2628, 2627, 3095, 3096, 3132, 3131
2346, 2593, 2594, 2630, 2629, 3097, 3098, 3134, 3133
2347, 2594, 2595, 2631, 2630, 3098, 3099, 3135, 3134
2348, 2595, 2596, 2632, 2631, 3099, 3100, 3136, 3135
2349, 2596, 2597, 2633, 2632, 3100, 3101, 3137, 3136
2350, 2597, 2598, 2634, 2633, 3101, 3102, 3138, 3137
2351, 2598, 2599, 2635, 2634, 3102, 3103, 3139, 3138
2352, 2599, 2600, 2636, 2635, 3103, 3104, 3140, 3139
2353, 2600, 2601, 2637, 2636, 3104, 3105, 3141, 3140
2354, 2601, 2602, 2638, 2637, 3105, 3106, 3142, 3141
2355, 2602, 2603, 2639, 2638, 3106, 3107, 3143, 3142
2356, 2603, 2604, 2640, 2639, 3107, 3108, 3144, 3143
2357, 2604, 2605, 2641, 2640, 3108, 3109, 3145, 3144
2358, 2605, 2606, 2642, 2641, 3109, 3110, 3146, 3145
2359, 2606, 2607, 2643, 2642, 3110, 3111, 3147, 3146
2360, 2607, 2608, 2644, 2643, 3111, 3112, 3148, 3147
2361, 2608, 2609, 2645, 2644, 3112, 3113, 3149, 3148
2362, 2609, 2610, 2646, 2645, 3113, 3114, 3150, 3149
2363, 2610, 2611, 2647, 2646, 3114, 3115, 3151, 3150
2364, 2611, 2612, 2648, 2647, 3115, 3116, 3152, 3151
2365, 2612, 2613, 2649, 2648, 3116, 3117, 3153, 3152
2366, 2613, 2614, 2650, 2649, 3117, 3118, 3154, 3153
2367, 2614, 2615, 2651, 2650, 3118, 3119, 3155, 3154
2368, 2615, 2616, 2652, 2651, 3119, 3120, 3156, 3155
2369, 2616, 2617, 2653, 2652, 3120, 3121, 3157, 3156
2370, 2617, 2618, 2654, 2653, 3121, 3122, 3158, 3157
2371, 2618, 2619, 2655, 2654, 3122, 3123, 3159, 3158
2372, 2619, 2620, 2656, 2655, 3123, 3124, 3160, 3159
2373, 2620, 2621, 2657, 2656, 3124, 3125, 3161, 3160
2374, 2621, 2622, 2658, 2657, 3125, 3126, 3162, 3161
2375, 2622, 2623, 2659, 2658, 3126, 3127, 3163, 3162
2376, 2623, 2624, 2660, 2659, 3127, 3128, 3164, 3163
2377, 2624, 2625, 2661, 2660, 3128, 3129, 3165, 3164
2378, 2625, 2626, 2662, 2661, 3129, 3130, 3166, 3165
2379, 2626, 2627, 2663, 2662, 3130, 3131, 3167, 3166
2380, 2627, 2628, 2664, 2663, 3131, 3132, 3168, 3167
2381, 2629, 2630, 2666, 2665, 3133, 3134, 3170, 3169
2382, 2630, 2631, 2667, 2666, 3134, 3135, 3171, 3170
2383, 2631, 2632, 2668, 2667, 3135, 3136, 3172, 3171
2384, 2632, 2633, 2669, 2668, 3136, 3137, 3173, 3172
2385, 2633, 2634, 2670, 2669, 3137, 3138, 3174, 3173
2386, 2634, 2635, 2671, 2670, 3138, 3139, 3175, 3174
2387, 2635, 2636, 2672, 2671, 3139, 3140, 3176, 3175
2388, 2636, 2637, 2673, 2672, 3140, 3141, 3177, 3176
2389, 2637, 2638, 2674, 2673, 3141, 3142, 3178, 3177
2390, 2638, 2639, 2675, 2674, 3142, 3143, 3179, 3178
2391, 2639, 2640, 2676, 2675, 3143, 3144, 3180, 3179
2392, 2640, 2641, 2677, 2676, 3144, 3145, 3181, 3180
2393, 2641, 2642, 2678, 2677, 3145, 3146, 3182, 3181
2394, 2642, 2643, 2679, 2678, 3146, 3147, 3183, 3182
2395, 2643, 2644, 2680, 2679, 3147, 3148, 3184, 3183
2396, 2644, 2645, 2681, 2680, 3148, 3149, 3185, 3184
2397, 2645, 2646, 2682, 2681, 3149, 3150, 3186, 3185
2398, 2646, 2647, 2683, 2682, 3150, 3151, 3187, 3186
2399, 2647, 2648, 2684, 2683, 3151, 3152, 3188, 3187
2400, 2648, 2649, 2685, 2684, 3152, 3153, 3189, 3188
2401, 2649, 2650, 2686, 2685, 3153, 3154, 3190, 3189
2402, 2650, 2651, 2687, 2686, 3154, 3155, 3191, 3190
2403, 2651, 2652, 2688, 2687, 3155, 3156, 3192, 3191
2404, 2652, 2653, 2689, 2688, 3156, 3157, 3193, 3192
2405, 2653, 2654, 2690, 2689, 3157, 3158, 3194, 3193
2406, 2654, 2655, 2691, 2690, 3158, 3159, 3195, 3194
2407, 2655, 2656, 2692, 2691, 3159, 3160, 3196, 3195
2408, 2656, 2657, 2693, 2692, 3160, 3161, 3197, 3196
2409, 2657, 2658, 2694, 2693, 3161, 3162, 3198, 3197
2410, 2658, 2659, 2695, 2694, 3162, 3163, 3199, 3198
2411, 2659, 2660, 2696, 2695, 3163, 3164, 3200, 3199
2412, 2660, 2661, 2697, 2696, 3164, 3165, 3201, 3200
2413, 2661, 2662, 2698, 2697, 3165, 3166, 3202, 3201
2414, 2662, 2663, 2699, 2698, 3166, 3167, 3203, 3202
2415, 2663, 2664, 2700, 2699, 3167, 3168, 3204, 3203
2416, 2665, 2666, 2702, 2701, 3169, 3170, 3206, 3205
2417, 2666, 2667, 2703, 2702, 3170, 3171, 3207, 3206
2418, 2667, 2668, 2704, 2703, 3171, 3172, 3208, 3207
2419, 2668, 2669, 2705, 2704, 3172, 3173, 3209, 3208
2420, 2669, 2670, 2706, 2705, 3173, 3174, 3210, 3209
2421, 2670, 2671, 2707, 2706, 3174, 3175, 3211, 3210
2422, 2671, 2672, 2708, 2707, 3175, 3176, 3212, 3211
2423, 2672, 2673, 2709, 2708, 3176, 3177, 3213, 3212
2424, 2673, 2674, 2710, 2709, 3177, 3178, 3214, 3213
2425, 2674, 2675, 2711, 2710, 3178, 3179, 3215, 3214
2426, 2675, 2676, 2712, 2711, 3179, 3180, 3216, 3215
2427, 2676, 2677, 2713, 2712, 3180, 3181, 3217, 3216
2428, 2677, 2678, 2714, 2713, 3181, 3182, 3218, 3217
2429, 2678, 2679, 2715, 2714, 3182, 3183, 3219, 3218
2430, 2679, 2680, 2716, 2715, 3183, 3184, 3220, 3219
2431, 2680, 2681, 2717, 2716, 3184, 3185, 3221, 3220
2432, 2681, 2682, 2718, 2717, 3185, 3186, 3222, 3221
2433, 2682, 2683, 2719, 2718, 3186, 3187, 3223, 3222
2434, 2683, 2684, 2720, 2719, 3187, 3188, 3224, 3223
2435, 2684, 2685, 2721, 2720, 3188, 3189, 3225, 3224
2436, 2685, 2686, 2722, 2721, 3189, 3190, 3226, 3225
2437, 2686, 2687, 2723, 2722, 3190, 3191, 3227, 3226
2438, 2687, 2688, 2724, 2723, 3191, 3192, 3228, 3227
2439, 2688, 2689, 2725, 2724, 3192, 3193, 3229, 3228
2440, 2689, 2690, 2726, 2725, 3193, 3194, 3230, 3229
2441, 2690, 2691, 2727, 2726, 3194, 3195, 3231, 3230
2442, 2691, 2692, 2728, 2727, 3195, 3196, 3232, 3231
2443, 2692, 2693, 2729, 2728, 3196, 3197, 3233, 3232
2444, 2693, 2694, 2730, 2729, 3197, 3198, 3234, 3233
2445, 2694, 2695, 2731, 2730, 3198, 3199, 3235, 3234
2446, 2695, 2696, 2732, 2731, 3199, 3200, 3236, 3235
2447, 2696, 2697, 2733, 2732, 3200, 3201, 3237, 3236
2448, 2697, 2698, 2734, 2733, 3201, 3202, 3238, 3237
2449, 2698, 2699, 2735, 2734, 3202, 3203, 3239, 3238
2450, 2699, 2700, 2736, 2735, 3203, 3204, 3240, 3239
2451, 2701, 2702, 2738, 2737, 3205, 3206, 3242, 3241
2452, 2702, 2703, 2739, 2738, 3206, 3207, 3243, 3242
2453, 2703, 2704, 2740, 2739, 3207, 3208, 3244, 3243
2454, 2704, 2705, 2741, 2740, 3208, 3209, 3245, 3244
2455, 2705, 2706, 2742, 2741, 3209, 3210, 3246, 3245
2456, 2706, 2707, 2743, 2742, 3210, 3211, 3247, 3246
2457, 2707, 2708, 2744, 2743, 3211, 3212, 3248, 3247
2458, 2708, 2709, 2745, 2744, 3212, 3213, 3249, 3248
2459, 2709, 2710, 2746, 2745, 3213, 3214, 3250, 3249
2460, 2710, 2711, 2747, 2746, 3214, 3215, 3251, 3250
2461, 2711, 2712, 2748, 2747, 3215, 3216, 3252, 3251
2462, 2712, 2713, 2749, 2748, 3216, 3217, 3253, 3252
2463, 2713, 2714, 2750, 2749, 3217, 3218, 3254, 3253
2464, 2714, 2715, 2751, 2750, 3218, 3219, 3255, 3254
2465, 2715, 2716, 2752, 2751, 3219, 3220, 3256, 3255
2466, 2716, 2717, 2753, 2752, 3220, 3221, 3257, 3256
2467, 2717, 2718, 2754, 2753, 3221, 3222, 3258, 3257
2468, 2718, 2719, 2755, 2754, 3222, 3223, 3259, 3258
2469, 2719, 2720, 2756, 2755, 3223, 3224, 3260, 3259
2470, 2720, 2721, 2757, 2756, 3224, 3225, 3261, 3260
2471, 2721, 2722, 2758, 2757, 3225, 3226, 3262, 3261
2472, 2722, 2723, 2759, 2758, 3226, 3227, 3263, 3262
2473, 2723, 2724, 2760, 2759, 3227, 3228, 3264, 3263
2474, 2724, 2725, 2761, 2760, 3228, 3229, 3265, 3264
2475, 2725, 2726, 2762, 2761, 3229, 3230, 3266, 3265
2476, 2726, 2727, 2763, 2762, 3230, 3231, 3267, 3266
2477, 2727, 2728, 2764, 2763, 3231, 3232, 3268, 3267
2478, 2728, 2729, 2765, 2764, 3232, 3233, 3269, 3268
2479, 2729, 2730, 2766, 2765, 3233, 3234, 3270, 3269
2480, 2730, 2731, 2767, 2766, 3234, 3235, 3271, 3270
2481, 2731, 2732, 2768, 2767, 3235, 3236, 3272, 3271
2482, 2732, 2733, 2769, 2768, 3236, 3237, 3273, 3272
2483, 2733, 2734, 2770, 2769, 3237, 3238, 3274, 3273
2484, 2734, 2735, 2771, 2770, 3238, 3239, 3275, 3274
2485, 2735, 2736, 2772, 2771, 3239, 3240, 3276, 3275
2486, 2737, 2738, 2774, 2773, 3241, 3242, 3278, 3277
2487, 2738, 2739, 2775, 2774, 3242, 3243, 3279, 3278
2488, 2739, 2740, 2776, 2775, 3243, 3244, 3280, 3279
2489, 2740, 2741, 2777, 2776, 3244, 3245, 3281, 3280
2490, 2741, 2742, 2778, 2777, 3245, 3246, 3282, 3281
2491, 2742, 2743, 2779, 2778, 3246, 3247, 3283, 3282
2492, 2743, 2744, 2780, 2779, 3247, 3248, 3284, 3283
2493, 2744, 2745, 2781, 2780, 3248, 3249, 3285, 3284
2494, 2745, 2746, 2782, 2781, 3249, 3250, 3286, 3285
2495, 2746, 2747, 2783, 2782, 3250, 3251, 3287, 3286
2496, 2747, 2748, 2784, 2783, 3251, 3252, 3288, 3287
2497, 2748, 2749, 2785, 2784, 3252, 3253, 3289, 3288
2498, 2749, 2750, 2786, 2785, 3253, 3254, 3290, 3289
2499, 2750, 2751, 2787, 2786, 3254, 3255, 3291, 3290
2500, 2751, 2752, 2788, 2787, 3255, 3256, 3292, 3291
2501, 2752, 2753, 2789, 2788, 3256, 3257, 3293, 3292
2502, 2753, 2754, 2790, 2789, 3257, 3258, 3294, 3293
2503, 2754, 2755, 2791, 2790, 3258, 3259, 3295, 3294
2504, 2755, 2756, 2792, 2791, 3259, 3260, 3296, 3295
2505, 2756, 2757, 2793, 2792, 3260, 3261, 3297, 3296
2506, 2757, 2758, 2794, 2793, 3261, 3262, 3298, 3297
2507, 2758, 2759, 2795, 2794, 3262, 3263, 3299, 3298
2508, 2759, 2760, 2796, 2795, 3263, 3264, 3300, 3299
2509, 2760, 2761, 2797, 2796, 3264, 3265, 3301, 3300
2510, 2761, 2762, 2798, 2797, 3265, 3266, 3302, 3301
2511, 2762, 2763, 2799, 2798, 3266, 3267, 3303, 3302
2512, 2763, 2764, 2800, 2799, 3267, 3268, 3304, 3303
2513, 2764, 2765, 2801, 2800, 3268, 3269, 3305, 3304
2514, 2765, 2766, 2802, 2801, 3269, 3270, 3306, 3305
2515, 2766, 2767, 2803, 2802, 3270, 3271, 3307, 3306
2516, 2767, 2768, 2804, 2803, 3271, 3272, 3308, 3307
2517, 2768, 2769, 2805, 2804, 3272, 3273, 3309, 3308
2518, 2769, 2770, 2806, 2805, 3273, 3274, 3310, 3309
2519, 2770, 2771, 2807, 2806, 3274, 3275, 3311, 3310
2520, 2771, 2772, 2808, 2807, 3275, 3276, 3312, 3311
2521, 2773, 2774, 2810, 2809, 3277, 3278, 3314, 3313
2522, 2774, 2775, 2811, 2810, 3278, 3279, 3315, 3314
2523, 2775, 2776, 2812, 2811, 3279, 3280, 3316, 3315
2524, 2776, 2777, 2813, 2812, 3280, 3281, 3317, 3316
2525, 2777, 2778, 2814, 2813, 3281, 3282, 3318, 3317
2526, 2778, 2779, 2815, 2814, 3282, 3283, 3319, 3318
2527, 2779, 2780, 2816, 2815, 3283, 3284, 3320, 3319
2528, 2780, 2781, 2817, 2816, 3284, 3285, 3321, 3320
2529, 2781, 2782, 2818, 2817, 3285, 3286, 3322, 3321
2530, 2782, 2783, 2819, 2818, 3286, 3287, 3323, 3322
2531, 2783, 2784, 2820, 2819, 3287, 3288, 3324, 3323
2532, 2784, 2785, 2821, 2820, 3288, 3289, 3325, 3324
2533, 2785, 2786, 2822, 2821, 3289, 3290, 3326, 3325
2534, 2786, 2787, 2823, 2822, 3290, 3291, 3327, 3326
2535, 2787, 2788, 2824, 2823, 3291, 3292, 3328, 3327
2536, 2788, 2789, 2825, 2824, 3292, 3293, 3329, 3328
2537, 2789, 2790, 2826, 2825, 3293, 3294, 3330, 3329
2538, 2790, 2791, 2827, 2826, 3294, 3295, 3331, 3330
2539, 2791, 2792, 2828, 2827, 3295, 3296, 3332, 3331
2540, 2792, 2793, 2829, 2828, 3296, 3297, 3333, 3332
2541, 2793, 2794, 2830, 2829, 3297, 3298, 3334, 3333
2542, 2794, 2795, 2831, 2830, 3298, 3299, 3335, 3334
2543, 2795, 2796, 2832, 2831, 3299, 3300, 3336, 3335
2544, 2796, 2797, 2833, 2832, 3300, 3301, 3337, 3336
2545, 2797, 2798, 2834, 2833, 3301, 3302, 3338, 3337
2546, 2798, 2799, 2835, 2834, 3302, 3303, 3339, 3338
2547, 2799, 2800, 2836, 2835, 3303, 3304, 3340, 3339
2548, 2800, 2801, 2837, 2836, 3304, 3305, 3341, 3340
2549, 2801, 2802, 2838, 2837, 3305, 3306, 3342, 3341
2550, 2802, 2803, 2839, 2838, 3306, 3307, 3343, 3342
2551, 2803, 2804, 2840, 2839, 3307, 3308, 3344, 3343
2552, 2804, 2805, 2841, 2840, 3308, 3309, 3345, 3344
2553, 2805, 2806, 2842, 2841, 3309, 3310, 3346, 3345
2554, 2806, 2807, 2843, 2842, 3310, 3311, 3347, 3346
2555, 2807, 2808, 2844, 2843, 3311, 3312, 3348, 3347
2556, 2809, 2810, 2846, 2845, 3313, 3314, 3350, 3349
2557, 2810, 2811, 2847, 2846, 3314, 3315, 3351, 3350
2558, 2811, 2812, 2848, 2847, 3315, 3316, 3352, 3351
2559, 2812, 2813, 2849, 2848, 3316, 3317, 3353, 3352
2560, 2813, 2814, 2850, 2849, 3317, 3318, 3354, 3353
2561, 2814, 2815, 2851, 2850, 3318, 3319, 3355, 3354
2562, 2815, 2816, 2852, 2851, 3319, 3320, 3356, 3355
2563, 2816, 2817, 2853, 2852, 3320, 3321, 3357, 3356
2564, 2817, 2818, 2854, 2853, 3321, 3322, 3358, 3357
2565, 2818, 2819, 2855, 2854, 3322, 3323, 3359, 3358
2566, 2819, 2820, 2856, 2855, 3323, 3324, 3360, 3359
2567, 2820, 2821, 2857, 2856, 3324, 3325, 3361, 3360
2568, 2821, 2822, 2858, 2857, 3325, 3326, 3362, 3361
2569, 2822, 2823, 2859, 2858, 3326, 3327, 3363, 3362
2570, 2823, 2824, 2860, 2859, 3327, 3328, 3364, 3363
2571, 2824, 2825, 2861, 2860, 3328, 3329, 3365, 3364
2572, 2825, 2826, 2862, 2861, 3329, 3330, 3366, 3365
2573, 2826, 2827, 2863, 2862, 3330, 3331, 3367, 3366
2574, 2827, 2828, 2864, 2863, 3331, 3332, 3368, 3367
2575, 2828, 2829, 2865, 2864, 3332, 3333, 3369, 3368
2576, 2829, 2830, 2866, 2865, 3333, 3334, 3370, 3369
2577, 2830, 2831, 2867, 2866, 3334, 3335, 3371, 3370
2578, 2831, 2832, 2868, 2867, 3335, 3336, 3372, 3371
2579, 2832, 2833, 2869, 2868, 3336, 3337, 3373, 3372
2580, 2833, 2834, 2870, 2869, 3337, 3338, 3374, 3373
2581, 2834, 2835, 2871, 2870, 3338, 3339, 3375, 3374
2582, 2835, 2836, 2872, 2871, 3339, 3340, 3376, 3375
2583, 2836, 2837, 2873, 2872, 3340, 3341, 3377, 3376
2584, 2837, 2838, 2874, 2873, 3341, 3342, 3378, 3377
2585, 2838, 2839, 2875, 2874, 3342, 3343, 3379, 3378
2586, 2839, 2840, 2876, 2875, 3343, 3344, 3380, 3379
2587, 2840, 2841, 2877, 2876, 3344, 3345, 3381, 3380
2588, 2841, 2842, 2878, 2877, 3345, 3346, 3382, 3381
2589, 2842, 2843, 2879, 2878, 3346, 3347, 3383, 3382
2590, 2843, 2844, 2880, 2879, 3347, 3348, 3384, 3383
2591, 2845, 2846, 2882, 2881, 3349, 3350, 3386, 3385
2592, 2846, 2847, 2883, 2882, 3350, 3351, 3387, 3386
2593, 2847, 2848, 2884, 2883, 3351, 3352, 3388, 3387
2594, 2848, 2849, 2885, 2884, 3352, 3353, 3389, 3388
2595, 2849, 2850, 2886, 2885, 3353, 3354, 3390, 3389
2596, 2850, 2851, 2887, 2886, 3354, 3355, 3391, 3390
2597, 2851, 2852, 2888, 2887, 3355, 3356, 3392, 3391
2598, 2852, 2853, 2889, 2888, 3356, 3357, 3393, 3392
2599, 2853, 2854, 2890, 2889, 3357, 3358, 3394, 3393
2600, 2854, 2855, 2891, 2890, 3358, 3359, 3395, 3394
2601, 2855, 2856, 2892, 2891, 3359, 3360, 3396, 3395
2602, 2856, 2857, 2893, 2892, 3360, 3361, 3397, 3396
2603, 2857, 2858, 2894, 2893, 3361, 3362, 3398, 3397
2604, 2858, 2859, 2895, 2894, 3362, 3363, 3399, 3398
2605, 2859, 2860, 2896, 2895, 3363, 3364, 3400, 3399
2606, 2860, 2861, 2897, 2896, 3364, 3365, 3401, 3400
2607, 2861, 2862, 2898, 2897, 3365, 3366, 3402, 3401
2608, 2862, 2863, 2899, 2898, 3366, 3367, 3403, 3402
2609, 2863, 2864, 2900, 2899, 3367, 3368, 3404, 3403
2610, 2864, 2865, 2901, 2900, 3368, 3369, 3405, 3404
2611, 2865, 2866, 2902, 2901, 3369, 3370, 3406, 3405
2612, 2866, 2867, 2903, 2902, 3370, 3371, 3407, 3406
2613, 2867, 2868, 2904, 2903, 3371, 3372, 3408, 3407
2614, 2868, 2869, 2905, 2904, 3372, 3373, 3409, 3408
2615, 2869, 2870, 2906, 2905, 3373, 3374, 3410, 3409
2616, 2870, 2871, 2907, 2906, 3374, 3375, 3411, 3410
2617, 2871, 2872, 2908, 2907, 3375, 3376, 3412, 3411
2618, 2872, 2873, 2909, 2908, 3376, 3377, 3413, 3412
2619, 2873, 2874, 2910, 2909, 3377, 3378, 3414, 3413
2620, 2874, 2875, 2911, 2910, 3378, 3379, 3415, 3414
2621, 2875, 2876, 2912, 2911, 3379, 3380, 3416, 3415
2622, 2876, 2877, 2913, 2912, 3380, 3381, 3417, 3416
2623, 2877, 2878, 2914, 2913, 3381, 3382, 3418, 3417
2624, 2878, 2879, 2915, 2914, 3382, 3383, 3419, 3418
2625, 2879, 2880, 2916, 2915, 3383, 3384, 3420, 3419
2626, 2881, 2882, 2918, 2917, 3385, 3386, 3422, 3421
2627, 2882, 2883, 2919, 2918, 3386, 3387, 3423, 3422
2628, 2883, 2884, 2920, 2919, 3387, 3388, 3424, 3423
2629, 2884, 2885, 2921, 2920, 3388, 3389, 3425, 3424
2630, 2885, 2886, 2922, 2921, 3389, 3390, 3426, 3425
2631, 2886, 2887, 2923, 2922, 3390, 3391, 3427, 3426
2632, 2887, 2888, 2924, 2923, 3391, 3392, 3428, 3427
2633, 2888, 2889, 2925, 2924, 3392, 3393, 3429, 3428
2634, 2889, 2890, 2926, 2925, 3393, 3394, 3430, 3429
2635, 2890, 2891, 2927, 2926, 3394, 3395, 3431, 3430
2636, 2891, 2892, 2928, 2927, 3395, 3396, 3432, 3431
2637, 2892, 2893, 2929, 2928, 3396, 3397, 3433, 3432
2638, 2893, 2894, 2930, 2929, 3397, 3398, 3434, 3433
2639, 2894, 2895, 2931, 2930, 3398, 3399, 3435, 3434
2640, 2895, 2896, 2932, 2931, 3399, 3400, 3436, 3435
2641, 2896, 2897, 2933, 2932, 3400, 3401, 3437, 3436
2642, 2897, 2898, 2934, 2933, 3401, 3402, 3438, 3437
2643, 2898, 2899, 2935, 2934, 3402, 3403, 3439, 3438
2644, 2899, 2900, 2936, 2935, 3403, 3404, 3440, 3439
2645, 2900, 2901, 2937, 2936, 3404, 3405, 3441, 3440
2646, 2901, 2902, 2938, 2937, 3405, 3406, 3442, 3441
2647, 2902, 2903, 2939, 2938, 3406, 3407, 3443, 3442
2648, 2903, 2904, 2940, 2939, 3407, 3408, 3444, 3443
2649, 2904, 2905, 2941, 2940, 3408, 3409, 3445, 3444
2650, 2905, 2906, 2942, 2941, 3409, 3410, 3446, 3445
2651, 2906, 2907, 2943, 2942, 3410, 3411, 3447, 3446
2652, 2907, 2908, 2944, 2943, 3411, 3412, 3448, 3447
2653, 2908, 2909, 2945, 2944, 3412, 3413, 3449, 3448
2654, 2909, 2910, 2946, 2945, 3413, 3414, 3450, 3449
2655, 2910, 2911, 2947, 2946, 3414, 3415, 3451, 3450
2656, 2911, 2912, 2948, 2947, 3415, 3416, 3452, 3451
2657, 2912, 2913, 2949, 2948, 3416, 3417, 3453, 3452
2658, 2913, 2914, 2950, 2949, 3417, 3418, 3454, 3453
2659, 2914, 2915, 2951, 2950, 3418, 3419, 3455, 3454
2660, 2915, 2916, 2952, 2951, 3419, 3420, 3456, 3455
2661, 2917, 2918, 2954, 2953, 3421, 3422, 3458, 3457
2662, 2918, 2919, 2955, 2954, 3422, 3423, 3459, 3458
2663, 2919, 2920, 2956, 2955, 3423, 3424, 3460, 3459
2664, 2920, 2921, 2957, 2956, 3424, 3425, 3461, 3460
2665, 2921, 2922, 2958, 2957, 3425, 3426, 3462, 3461
2666, 2922, 2923, 2959, 2958, 3426, 3427, 3463, 3462
2667, 2923, 2924, 2960, 2959, 3427, 3428, 3464, 3463
2668, 2924, 2925, 2961, 2960, 3428, 3429, 3465, 3464
2669, 2925, 2926, 2962, 2961, 3429, 3430, 3466, 3465
2670, 2926, 2927, 2963, 2962, 3430, 3431, 3467, 3466
2671, 2927, 2928, 2964, 2963, 3431, 3432, 3468, 3467
2672, 2928, 2929, 2965, 2964, 3432, 3433, 3469, 3468
2673, 2929, 2930, 2966, 2965, 3433, 3434, 3470, 3469
2674, 2930, 2931, 2967, 2966, 3434, 3435, 3471, 3470
2675, 2931, 2932, 2968, 2967, 3435, 3436, 3472, 3471
2676, 2932, 2933, 2969, 2968, 3436, 3437, 3473, 3472
2677, 2933, 2934, 2970, 2969, 3437, 3438, 3474, 3473
2678, 2934, 2935, 2971, 2970, 3438, 3439, 3475, 3474
2679, 2935, 2936, 2972, 2971, 3439, 3440, 3476, 3475
2680, 2936, 2937, 2973, 2972, 3440, 3441, 3477, 3476
2681, 2937, 2938, 2974, 2973, 3441, 3442, 3478, 3477
2682, 2938, 2939, 2975, 2974, 3442, 3443, 3479, 3478
2683, 2939, 2940, 2976, 2975, 3443, 3444, 3480, 3479
2684, 2940, 2941, 2977, 2976, 3444, 3445, 3481, 3480
2685, 2941, 2942, 2978, 2977, 3445, 3446, 3482, 3481
2686, 2942, 2943, 2979, 2978, 3446, 3447, 3483, 3482
2687, 2943, 2944, 2980, 2979, 3447, 3448, 3484, 3483
2688, 2944, 2945, 2981, 2980, 3448, 3449, 3485, 3484
2689, 2945, 2946, 2982, 2981, 3449, 3450, 3486, 3485
2690, 2946, 2947, 2983, 2982, 3450, 3451, 3487, 3486
2691, 2947, 2948, 2984, 2983, 3451, 3452, 3488, 3487
2692, 2948, 2949, 2985, 2984, 3452, 3453, 3489, 3488
2693, 2949, 2950, 2986, 2985, 3453, 3454, 3490, 3489
2694, 2950, 2951, 2987, 2986, 3454, 3455, 3491, 3490
2695, 2951, 2952, 2988, 2987, 3455, 3456, 3492, 3491
2696, 2953, 2954, 2990, 2989, 3457, 3458, 3494, 3493
2697, 2954, 2955, 2991, 2990, 3458, 3459, 3495, 3494
2698, 2955, 2956, 2992, 2991, 3459, 3460, 3496, 3495
2699, 2956, 2957, 2993, 2992, 3460, 3461, 3497, 3496
2700, 2957, 2958, 2994, 2993, 3461, 3462, 3498, 3497
2701, 2958, 2959, 2995, 2994, 3462, 3463, 3499, 3498
2702, 2959, 2960, 2996, 2995, 3463, 3464, 3500, 3499
2703, 2960, 2961, 2997, 2996, 3464, 3465, 3501, 3500
2704, 2961, 2962, 2998, 2997, 3465, 3466, 3502, 3501
2705, 2962, 2963, 2999, 2998, 3466, 3467, 3503, 3502
2706, 2963, 2964, 3000, 2999, 3467, 3468, 3504, 3503
2707, 2964, 2965, 3001, 3000, 3468, 3469, 3505, 3504
2708, 2965, 2966, 3002, 3001, 3469, 3470, 3506, 3505
2709, 2966, 2967, 3003, 3002, 3470, 3471, 3507, 3506
2710, 2967, 2968, 3004, 3003, 3471, 3472, 3508, 3507
2711, 2968, 2969, 3005, 3004, 3472, 3473, 3509, 3508
2712, 2969, 2970, 3006, 3005, 3473, 3474, 3510, 3509
2713, 2970, 2971, 3007, 3006, 3474, 3475, 3511, 3510
2714, 2971, 2972, 3008, 3007, 3475, 3476, 3512, 3511
2715, 2972, 2973, 3009, 3008, 3476, 3477, 3513, 3512
2716, 2973, 2974, 3010, 3009, 3477, 3478, 3514, 3513
2717, 2974, 2975, 3011, 3010, 3478, 3479, 3515, 3514
2718, 2975, 2976, 3012, 3011, 3479, 3480, 3516, 3515
2719, 2976, 2977, 3013, 3012, 3480, 3481, 3517, 3516
2720, 2977, 2978, 3014, 3013, 3481, 3482, 3518, 3517
2721, 2978, 2979, 3015, 3014, 3482, 3483, 3519, 3518
2722, 2979, 2980, 3016, 3015, 3483, 3484, 3520, 3519
2723, 2980, 2981, 3017, 3016, 3484, 3485, 3521, 3520
2724, 2981, 2982, 3018, 3017, 3485, 3486, 3522, 3521
2725, 2982, 2983, 3019, 3018, 3486, 3487, 3523, 3522
2726, 2983, 2984, 3020, 3019, 3487, 3488, 3524, 3523
2727, 2984, 2985, 3021, 3020, 3488, 3489, 3525, 3524
2728, 2985, 2986, 3022, 3021, 3489, 3490, 3526, 3525
2729, 2986, 2987, 3023, 3022, 3490, 3491, 3527, 3526
2730, 2987, 2988, 3024, 3023, 3491, 3492, 3528, 3527
2731, 3025, 3026, 3062, 3061, 3529, 3530, 3566, 3565
2732, 3026, 3027, 3063, 3062, 3530, 3531, 3567, 3566
2733, 3027, 3028, 3064, 3063, 3531, 3532, 3568, 3567
2734, 3028, 3029, 3065, 3064, 3532, 3533, 3569, 3568
2735, 3029, 3030, 3066, 3065, 3533, 3534, 3570, 3569
2736, 3030, 3031, 3067, 3066, 3534, 3535, 3571, 3570
2737, 3031, 3032, 3068, 3067, 3535, 3536, 3572, 3571
2738, 3032, 3033, 3069, 3068, 3536, 3537, 3573, 3572
2739, 3033, 3034, 3070, 3069, 3537, 3538, 3574, 3573
2740, 3034, 3035, 3071, 3070, 3538, 3539, 3575, 3574
2741, 3035, 3036, 3072, 3071, 3539, 3540, 3576, 3575
2742, 3036, 3037, 3073, 3072, 3540, 3541, 3577, 3576
2743, 3037, 3038, 3074, 3073, 3541, 3542, 3578, 3577
2744, 3038, 3039, 3075, 3074, 3542, 3543, 3579, 3578
2745, 3039, 3040, 3076, 3075, 3543, 3544, 3580, 3579
2746, 3040, 3041, 3077, 3076, 3544, 3545, 3581, 3580
2747, 3041, 3042, 3078, 3077, 3545, 3546, 3582, 3581
2748, 3042, 3043, 3079, 3078, 3546, 3547, 3583, 3582
2749, 3043, 3044, 3080, 3079, 3547, 3548, 3584, 3583
2750, 3044, 3045, 3081, 3080, 3548, 3549, 3585, 3584
2751, 3045, 3046, 3082, 3081, 3549, 3550, 3586, 3585
2752, 3046, 3047, 3083, 3082, 3550, 3551, 3587, 3586
2753, 3047, 3048, 3084, 3083, 3551, 3552, 3588, 3587
2754, 3048, 3049, 3085, 3084, 3552, 3553, 3589, 3588
2755, 3049, 3050, 3086, 3085, 3553, 3554, 3590, 3589
2756, 3050, 3051, 3087, 3086, 3554, 3555, 3591, 3590
2757, 3051, 3052, 3088, 3087, 3555, 3556, 3592, 3591
2758, 3052, 3053, 3089, 3088, 3556, 3557, 3593, 3592
2759, 3053, 3054, 3090, 3089, 3557, 3558, 3594, 3593
2760, 3054, 3055, 3091, 3090, 3558, 3559, 3595, 3594
2761, 3055, 3056, 3092, 3091, 3559, 3560, 3596, 3595
2762, 3056, 3057, 3093, 3092, 3560, 3561, 3597, 3596
2763, 3057, 3058, 3094, 3093, 3561, 3562, 3598, 3597
2764, 3058, 3059, 3095, 3094, 3562, 3563, 3599, 3598
2765, 3059, 3060, 3096, 3095, 3563, 3564, 3600, 3599
2766, 3061, 3062, 3098, 3097, 3565, 3566, 3602, 3601
2767, 3062, 3063, 3099, 3098, 3566, 3567, 3603, 3602
2768, 3063, 3064, 3100, 3099, 3567, 3568, 3604, 3603
2769, 3064, 3065, 3101, 3100, 3568, 3569, 3605, 3604
2770, 3065, 3066, 3102, 3101, 3569, 3570, 3606, 3605
2771, 3066, 3067, 3103, 3102, 3570, 3571, 3607, 3606
2772, 3067, 3068, 3104, 3103, 3571, 3572, 3608, 3607
2773, 3068, 3069, 3105, 3104, 3572, 3573, 3609, 3608
2774, 3069, 3070, 3106, 3105, 3573, 3574, 3610, 3609
2775, 3070, 3071, 3107, 3106, 3574, 3575, 3611, 3610
2776, 3071, 3072, 3108, 3107, 3575, 3576, 3612, 3611
2777, 3072, 3073, 3109, 3108, 3576, 3577, 3613, 3612
2778, 3073, 3074, 3110, 3109, 3577, 3578, 3614, 3613
2779, 3074, 3075, 3111, 3110, 3578, 3579, 3615, 3614
2780, 3075, 3076, 3112, 3111, 3579, 3580, 3616, 3615
2781, 3076, 3077, 3113, 3112, 3580, 3581, 3617, 3616
2782, 3077, 3078, 3114, 3113, 3581, 3582, 3618, 3617
2783, 3078, 3079, 3115, 3114, 3582, 3583, 3619, 3618
2784, 3079, 3080, 3116, 3115, 3583, 3584, 3620, 3619
2785, 3080, 3081, 3117, 3116, 3584, 3585, 3621, 3620
2786, 3081, 3082, 3118, 3117, 3585, 3586, 3622, 3621
2787, 3082, 3083, 3119, 3118, 3586, 3587, 3623, 3622
2788, 3083, 3084, 3120, 3119, 3587, 3588, 3624, 3623
2789, 3084, 3085, 3121, 3120, 3588, 3589, 3625, 3624
2790, 3085, 3086, 3122, 3121, 3589, 3590, 3626, 3625
2791, 3086, 3087, 3123, 3122, 3590, 3591, 3627, 3626
2792, 3087, 3088, 3124, 3123, 3591, 3592, 3628, 3627
2793, 3088, 3089, 3125, 3124, 3592, 3593, 3629, 3628
2794, 3089, 3090, 3126, 3125, 3593, 3594, 3630, 3629
2795, 3090, 3091, 3127, 3126, 3594, 3595, 3631, 3630
2796, 3091, 3092, 3128, 3127, 3595, 3596, 3632, 3631
2797, 3092, 3093, 3129, 3128, 3596, 3597, 3633, 3632
2798, 3093, 3094, 3130, 3129, 3597, 3598, 3634, 3633
2799, 3094, 3095, 3131, 3130, 3598, 3599, 3635, 3634
2800, 3095, 3096, 3132, 3131, 3599, 3600, 3636, 3635
2801, 3097, 3098, 3134, 3133, 3601, 3602, 3638, 3637
2802, 3098, 3099, 3135, 3134, 3602, 3603, 3639, 3638
2803, 3099, 3100, 3136, 3135, 3603, 3604, 3640, 3639
2804, 3100, 3101, 3137, 3136, 3604, 3605, 3641, 3640
2805, 3101, 3102, 3138, 3137, 3605, 3606, 3642, 3641
2806, 3102, 3103, 3139, 3138, 3606, 3607, 3643, 3642
2807, 3103, 3104, 3140, 3139, 3607, 3608, 3644, 3643
2808, 3104, 3105, 3141, 3140, 3608, 3609, 3645, 3644
2809, 3105, 3106, 3142, 3141, 3609, 3610, 3646, 3645
2810, 3106, 3107, 3143, 3142, 3610, 3611, 3647, 3646
2811, 3107, 3108, 3144, 3143, 3611, 3612, 3648, 3647
2812, 3108, 3109, 3145, 3144, 3612, 3613, 3649, 3648
2813, 3109, 3110, 3146, 3145, 3613, 3614, 3650, 3649
2814, 3110, 3111, 3147, 3146, 3614, 3615, 3651, 3650
2815, 3111, 3112, 3148, 3147, 3615, 3616, 3652, 3651
2816, 3112, 3113, 3149, 3148, 3616, 3617, 3653, 3652
2817, 3113, 3114, 3150, 3149, 3617, 3618, 3654, 3653
2818, 3114, 3115, 3151, 3150, 3618, 3619, 3655, 3654
2819, 3115, 3116, 3152, 3151, 3619, 3620, 3656, 3655
2820, 3116, 3117, 3153, 3152, 3620, 3621, 3657, 3656
2821, 3117, 3118, 3154, 3153, 3621, 3622, 3658, 3657
2822, 3118, 3119, 3155, 3154, 3622, 3623, 3659, 3658
2823, 3119, 3120, 3156, 3155, 3623, 3624, 3660, 3659
2824, 3120, 3121, 3157, 3156, 3624, 3625, 3661, 3660
2825, 3121, 3122, 3158, 3157, 3625, 3626, 3662, 3661
2826, 3122, 3123, 3159, 3158, 3626, 3627, 3663, 3662
2827, 3123, 3124, 3160, 3159, 3627, 3628, 3664, 3663
2828, 3124, 3125, 3161, 3160, 3628, 3629, 3665, 3664
2829, 3125, 3126, 3162, 3161, 3629, 3630, 3666, 3665
2830, 3126, 3127, 3163, 3162, 3630, 3631, 3667, 3666
2831, 3127, 3128, 3164, 3163, 3631, 3632, 3668, 3667
2832, 3128, 3129, 3165, 3164, 3632, 3633, 3669, 3668
2833, 3129, 3130, 3166, 3165, 3633, 3634, 3670, 3669
2834, 3130, 3131, 3167, 3166, 3634, 3635, 3671, 3670
2835, 3131, 3132, 3168, 3167, 3635, 3636, 3672, 3671
2836, 3133, 3134, 3170, 3169, 3637, 3638, 3674, 3673
2837, 3134, 3135, 3171, 3170, 3638, 3639, 3675, 3674
2838, 3135, 3136, 3172, 3171, 3639, 3640, 3676, 3675
2839, 3136, 3137, 3173, 3172, 3640, 3641, 3677, 3676
2840, 3137, 3138, 3174, 3173, 3641, 3642, 3678, 3677
2841, 3138, 3139, 3175, 3174, 3642, 3643, 3679, 3678
2842, 3139, 3140, 3176, 3175, 3643, 3644, 3680, 3679
2843, 3140, 3141, 3177, 3176, 3644, 3645, 3681, 3680
2844, 3141, 3142, 3178, 3177, 3645, 3646, 3682, 3681
2845, 3142, 3143, 3179, 3178, 3646, 3647, 3683, 3682
2846, 3143, 3144, 3180, 3179, 3647, 3648, 3684, 3683
2847, 3144, 3145, 3181, 3180, 3648, 3649, 3685, 3684
2848, 3145, 3146, 3182, 3181, 3649, 3650, 3686, 3685
2849, 3146, 3147, 3183, 3182, 3650, 3651, 3687, 3686
2850, 3147, 3148, 3184, 3183, 3651, 3652, 3688, 3687
2851, 3148, 3149, 3185, 3184, 3652, 3653, 3689, 3688
2852, 3149, 3150, 3186, 3185, 3653, 3654, 3690, 3689
2853, 3150, 3151, 3187, 3186, 3654, 3655, 3691, 3690
2854, 3151, 3152, 3188, 3187, 3655, 3656, 3692, 3691
2855, 3152, 3153, 3189, 3188, 3656, 3657, 3693, 3692
2856, 3153, 3154, 3190, 3189, 3657, 3658, 3694, 3693
2857, 3154, 3155, 3191, 3190, 3658, 3659, 3695, 3694
2858, 3155, 3156, 3192, 3191, 3659, 3660, 3696, 3695
2859, 3156, 3157, 3193, 3192, 3660, 3661, 3697, 3696
2860, 3157, 3158, 3194, 3193, 3661, 3662, 3698, 3697
2861, 3158, 3159, 3195, 3194, 3662, 3663, 3699, 3698
2862, 3159, 3160, 3196, 3195, 3663, 3664, 3700, 3699
2863, 3160, 3161, 3197, 3196, 3664, 3665, 3701, 3700
2864, 3161, 3162, 3198, 3197, 3665, 3666, 3702, 3701
2865, 3162, 3163, 3199, 3198, 3666, 3667, 3703, 3702
2866, 3163, 3164, 3200, 3199, 3667, 3668, 3704, 3703
2867, 3164, 3165, 3201, 3200, 3668, 3669, 3705, 3704
2868, 3165, 3166, 3202, 3201, 3669, 3670, 3706, 3705
2869, 3166, 3167, 3203, 3202, 3670, 3671, 3707, 3706
2870, 3167, 3168, 3204, 3203, 3671, 3672, 3708, 3707
2871, 3169, 3170, 3206, 3205, 3673, 3674, 3710, 3709
2872, 3170, 3171, 3207, 3206, 3674, 3675, 3711, 3710
2873, 3171, 3172, 3208, 3207, 3675, 3676, 3712, 3711
2874, 3172, 3173, 3209, 3208, 3676, 3677, 3713, 3712
2875, 3173, 3174, 3210, 3209, 3677, 3678, 3714, 3713
2876, 3174, 3175, 3211, 3210, 3678, 3679, 3715, 3714
2877, 3175, 3176, 3212, 3211, 3679, 3680, 3716, 3715
2878, 3176, 3177, 3213, 3212, 3680, 3681, 3717, 3716
2879, 3177, 3178, 3214, 3213, 3681, 3682, 3718, 3717
2880, 3178, 3179, 3215, 3214, 3682, 3683, 3719, 3718
2881, 3179, 3180, 3216, 3215, 3683, 3684, 3720, 3719
2882, 3180, 3181, 3217, 3216, 3684, 3685, 3721, 3720
2883, 3181, 3182, 3218, 3217, 3685, 3686, 3722, 3721
2884, 3182, 3183, 3219, 3218, 3686, 3687, 3723, 3722
2885, 3183, 3184, 3220, 3219, 3687, 3688, 3724, 3723
2886, 3184, 3185, 3221, 3220, 3688, 3689, 3725, 3724
2887, 3185, 3186, 3222, 3221, 3689, 3690, 3726, 3725
2888, 3186, 3187, 3223, 3222, 3690, 3691, 3727, 3726
2889, 3187, 3188, 3224, 3223, 3691, 3692, 3728, 3727
2890, 3188, 3189, 3225, 3224, 3692, 3693, 3729, 3728
2891, 3189, 3190, 3226, 3225, 3693, 3694, 3730, 3729
2892, 3190, 3191, 3227, 3226, 3694, 3695, 3731, 3730
2893, 3191, 3192, 3228, 3227, 3695, 3696, 3732, 3731
2894, 3192, 3193, 3229, 3228, 3696, 3697, 3733, 3732
2895, 3193, 3194, 3230, 3229, 3697, 3698, 3734, 3733
2896, 3194, 3195, 3231, 3230, 3698, 3699, 3735, 3734
2897, 3195, 3196, 3232, 3231, 3699, 3700, 3736, 3735
2898, 3196, 3197, 3233, 3232, 3700, 3701, 3737, 3736
2899, 3197, 3198, 3234, 3233, 3701, 3702, 3738, 3737
2900, 3198, 3199, 3235, 3234, 3702, 3703, 3739, 3738
2901, 3199, 3200, 3236, 3235, 3703, 3704, 3740, 3739
2902, 3200, 3201, 3237, 3236, 3704, 3705, 3741, 3740
2903, 3201, 3202, 3238, 3237, 3705, 3706, 3742, 3741
2904, 3202, 3203, 3239, 3238, 3706, 3707, 3743, 3742
2905, 3203, 3204, 3240, 3239, 3707, 3708, 3744, 3743
2906, 3205, 3206, 3242, 3241, 3709, 3710, 3746, 3745
2907, 3206, 3207, 3243, 3242, 3710, 3711, 3747, 3746
2908, 3207, 3208, 3244, 3243, 3711, 3712, 3748, 3747
2909, 3208, 3209, 3245, 3244, 3712, 3713, 3749, 3748
2910, 3209, 3210, 3246, 3245, 3713, 3714, 3750, 3749
2911, 3210, 3211, 3247, 3246, 3714, 3715, 3751, 3750
2912, 3211, 3212, 3248, 3247, 3715, 3716, 3752, 3751
2913, 3212, 3213, 3249, 3248, 3716, 3717, 3753, 3752
2914, 3213, 3214, 3250, 3249, 3717, 3718, 3754, 3753
2915, 3214, 3215, 3251, 3250, 3718, 3719, 3755, 3754
2916, 3215, 3216, 3252, 3251, 3719, 3720, 3756, 3755
2917, 3216, 3217, 3253, 3252, 3720, 3721, 3757, 3756
2918, 3217, 3218, 3254, 3253, 3721, 3722, 3758, 3757
2919, 3218, 3219, 3255, 3254, 3722, 3723, 3759, 3758
2920, 3219, 3220, 3256, 3255, 3723, 3724, 3760, 3759
2921, 3220, 3221, 3257, 3256, 3724, 3725, 3761, 3760
2922, 3221, 3222, 3258, 3257, 3725, 3726, 3762, 3761
2923, 3222, 3223, 3259, 3258, 3726, 3727, 3763, 3762
2924, 3223, 3224, 3260, 3259, 3727, 3728, 3764, 3763
2925, 3224, 3225, 3261, 3260, 3728, 3729, 3765, 3764
2926, 3225, 3226, 3262, 3261, 3729, 3730, 3766, 3765
2927, 3226, 3227, 3263, 3262, 3730, 3731, 3767, 3766
2928, 3227, 3228, 3264, 3263, 3731, 3732, 3768, 3767
2929, 3228, 3229, 3265, 3264, 3732, 3733, 3769, 3768
2930, 3229, 3230, 3266, 3265, 3733, 3734, 3770, 3769
2931, 3230, 3231, 3267, 3266, 3734, 3735, 3771, 3770
2932, 3231, 3232, 3268, 3267, 3735, 3736, 3772, 3771
2933, 3232, 3233, 3269, 3268, 3736, 3737, 3773, 3772
2934, 3233, 3234, 3270, 3269, 3737, 3738, 3774, 3773
2935, 3234, 3235, 3271, 3270, 3738, 3739, 3775, 3774
2936, 3235, 3236, 3272, 3271, 3739, 3740, 3776, 3775
2937, 3236, 3237, 3273, 3272, 3740, 3741, 3777, 3776
2938, 3237, 3238, 3274, 3273, 3741, 3742, 3778, 3777
2939, 3238, 3239, 3275, 3274, 3742, 3743, 3779, 3778
2940, 3239, 3240, 3276, 3275, 3743, 3744, 3780, 3779
2941, 3241, 3242, 3278, 3277, 3745, 3746, 3782, 3781
2942, 3242, 3243, 3279, 3278, 3746, 3747, 3783, 3782
2943, 3243, 3244, 3280, 3279, 3747, 3748, 3784, 3783
2944, 3244, 3245, 3281, 3280, 3748, 3749, 3785, 3784
2945, 3245, 3246, 3282, 3281, 3749, 3750, 3786, 3785
2946, 3246, 3247, 3283, 3282, 3750, 3751, 3787, 3786
2947, 3247, 3248, 3284, 3283, 3751, 3752, 3788, 3787
2948, 3248, 3249, 3285, 3284, 3752, 3753, 3789, 3788
2949, 3249, 3250, 3286, 3285, 3753, 3754, 3790, 3789
2950, 3250, 3251, 3287, 3286, 3754, 3755, 3791, 3790
2951, 3251, 3252, 3288, 3287, 3755, 3756, 3792, 3791
2952, 3252, 3253, 3289, 3288, 3756, 3757, 3793, 3792
2953, 3253, 3254, 3290, 3289, 3757, 3758, 3794, 3793
2954, 3254, 3255, 3291, 3290, 3758, 3759, 3795, 3794
2955, 3255, 3256, 3292, 3291, 3759, 3760, 3796, 3795
2956, 3256, 3257, 3293, 3292, 3760, 3761, 3797, 3796
2957, 3257, 3258, 3294, 3293, 3761, 3762, 3798, 3797
2958, 3258, 3259, 3295, 3294, 3762, 3763, 3799, 3798
2959, 3259, 3260, 3296, 3295, 3763, 3764, 3800, 3799
2960, 3260, 3261, 3297, 3296, 3764, 3765, 3801, 3800
2961, 3261, 3262, 3298, 3297, 3765, 3766, 3802, 3801
2962, 3262, 3263, 3299, 3298, 3766, 3767, 3803, 3802
2963, 3263, 3264, 3300, 3299, 3767, 3768, 3804, 3803
2964, 3264, 3265, 3301, 3300, 3768, 3769, 3805, 3804
2965, 3265, 3266, 3302, 3301, 3769, 3770, 3806, 3805
2966, 3266, 3267, 3303, 3302, 3770, 3771, 3807, 3806
2967, 3267, 3268, 3304, 3303, 3771, 3772, 3808, 3807
2968, 3268, 3269, 3305, 3304, 3772, 3773, 3809, 3808
2969, 3269, 3270, 3306, 3305, 3773, 3774, 3810, 3809
2970, 3270, 3271, 3307, 3306, 3774, 3775, 3811, 3810
2971, 3271, 3272, 3308, 3307, 3775, 3776, 3812, 3811
2972, 3272, 3273, 3309, 3308, 3776, 3777, 3813, 3812
2973, 3273, 3274, 3310, 3309, 3777, 3778, 3814, 3813
2974, 3274, 3275, 3311, 3310, 3778, 3779, 3815, 3814
2975, 3275, 3276, 3312, 3311, 3779, 3780, 3816, 3815
2976, 3277, 3278, 3314, 3313, 3781, 3782, 3818, 3817
2977, 3278, 3279, 3315, 3314, 3782, 3783, 3819, 3818
2978, 3279, 3280, 3316, 3315, 3783, 3784, 3820, 3819
2979, 3280, 3281, 3317, 3316, 3784, 3785, 3821, 3820
2980, 3281, 3282, 3318, 3317, 3785, 3786, 3822, 3821
2981, 3282, 3283, 3319, 3318, 3786, 3787, 3823, 3822
2982, 3283, 3284, 3320, 3319, 3787, 3788, 3824, 3823
2983, 3284, 3285, 3321, 3320, 3788, 3789, 3825, 3824
2984, 3285, 3286, 3322, 3321, 3789, 3790, 3826, 3825
2985, 3286, 3287, 3323, 3322, 3790, 3791, 3827, 3826
2986, 3287, 3288, 3324, 3323, 3791, 3792, 3828, 3827
2987, 3288, 3289, 3325, 3324, 3792, 3793, 3829, 3828
2988, 3289, 3290, 3326, 3325, 3793, 3794, 3830, 3829
2989, 3290, 3291, 3327, 3326, 3794, 3795, 3831, 3830
2990, 3291, 3292, 3328, 3327, 3795, 3796, 3832, 3831
2991, 3292, 3293, 3329, 3328, 3796, 3797, 3833, 3832
2992, 3293, 3294, 3330, 3329, 3797, 3798, 3834, 3833
2993, 3294, 3295, 3331, 3330, 3798, 3799, 3835, 3834
2994, 3295, 3296, 3332, 3331, 3799, 3800, 3836, 3835
2995, 3296, 3297, 3333, 3332, 3800, 3801, 3837, 3836
2996, 3297, 3298, 3334, 3333, 3801, 3802, 3838, 3837
2997, 3298, 3299, 3335, 3334, 3802, 3803, 3839, 3838
2998, 3299, 3300, 3336, 3335, 3803, 3804, 3840, 3839
2999, 3300, 3301, 3337, 3336, 3804, 3805, 3841, 3840
3000, 3301, 3302, 3338, 3337, 3805, 3806, 3842, 3841
3001, 3302, 3303, 3339, 3338, 3806, 3807, 3843, 3842
3002, 3303, 3304, 3340, 3339, 3807, 3808, 3844, 3843
3003, 3304, 3305, 3341, 3340, 3808, 3809, 3845, 3844
3004, 3305, 3306, 3342, 3341, 3809, 3810, 3846, 3845
3005, 3306, 3307, 3343, 3342, 3810, 3811, 3847, 3846
3006, 3307, 3308, 3344, 3343, 3811, 3812, 3848, 3847
3007, 3308, 3309, 3345, 3344, 3812, 3813, 3849, 3848
3008, 3309, 3310, 3346, 3345, 3813, 3814, 3850, 3849
3009, 3310, 3311, 3347, 3346, 3814, 3815, 3851, 3850
3010, 3311, 3312, 3348, 3347, 3815, 3816, 3852, 3851
3011, 3313, 3314, 3350, 3349, 3817, 3818, 3854, 3853
3012, 3314, 3315, 3351, 3350, 3818, 3819, 3855, 3854
3013, 3315, 3316, 3352, 3351, 3819, 3820, 3856, 3855
3014, 3316, 3317, 3353, 3352, 3820, 3821, 3857, 3856
3015, 3317, 3318, 3354, 3353, 3821, 3822, 3858, 3857
3016, 3318, 3319, 3355, 3354, 3822, 3823, 3859, 3858
3017, 3319, 3320, 3356, 3355, 3823, 3824, 3860, 3859
3018, 3320, 3321, 3357, 3356, 3824, 3825, 3861, 3860
3019, 3321, 3322, 3358, 3357, 3825, 3826, 3862, 3861
3020, 3322, 3323, 3359, 3358, 3826, 3827, 3863, 3862
3021, 3323, 3324, 3360, 3359, 3827, 3828, 3864, 3863
3022, 3324, 3325, 3361, 3360, 3828, 3829, 3865, 3864
3023, 3325, 3326, 3362, 3361, 3829, 3830, 3866, 3865
3024, 3326, 3327, 3363, 3362, 3830, 3831, 3867, 3866
3025, 3327, 3328, 3364, 3363, 3831, 3832, 3868, 3867
3026, 3328, 3329, 3365, 3364, 3832, 3833, 3869, 3868
3027, 3329, 3330, 3366, 3365, 3833, 3834, 3870, 3869
3028, 3330, 3331, 3367, 3366, 3834, 3835, 3871, 3870
3029, 3331, 3332, 3368, 3367, 3835, 3836, 3872, 3871
3030, 3332, 3333, 3369, 3368, 3836, 3837, 3873, 3872
3031, 3333, 3334, 3370, 3369, 3837, 3838, 3874, 3873
3032, 3334, 3335, 3371, 3370, 3838, 3839, 3875, 3874
3033, 3335, 3336, 3372, 3371, 3839, 3840, 3876, 3875
3034, 3336, 3337, 3373, 3372, 3840, 3841, 3877, 3876
3035, 3337, 3338, 3374, 3373, 3841, 3842, 3878, 3877
3036, 3338, 3339, 3375, 3374, 3842, 3843, 3879, 3878
3037, 3339, 3340, 3376, 3375, 3843, 3844, 3880, 3879
3038, 3340, 3341, 3377, 3376, 3844, 3845, 3881, 3880
3039, 3341, 3342, 3378, 3377, 3845, 3846, 3882, 3881
3040, 3342, 3343, 3379, 3378, 3846, 3847, 3883, 3882
3041, 3343, 3344, 3380, 3379, 3847, 3848, 3884, 3883
3042, 3344, 3345, 3381, 3380, 3848, 3849, 3885, 3884
3043, 3345, 3346, 3382, 3381, 3849, 3850, 3886, 3885
3044, 3346, 3347, 3383, 3382, 3850, 3851, 3887, 3886
3045, 3347, 3348, 3384, 3383, 3851, 3852, 3888, 3887
3046, 3349, 3350, 3386, 3385, 3853, 3854, 3890, 3889
3047, 3350, 3351, 3387, 3386, 3854, 3855, 3891, 3890
3048, 3351, 3352, 3388, 3387, 3855, 3856, 3892, 3891
3049, 3352, 3353, 3389, 3388, 3856, 3857, 3893, 3892
3050, 3353, 3354, 3390, 3389, 3857, 3858, 3894, 3893
3051, 3354, 3355, 3391, 3390, 3858, 3859, 3895, 3894
3052, 3355, 3356, 3392, 3391, 3859, 3860, 3896, 3895
3053, 3356, 3357, 3393, 3392, 3860, 3861, 3897, 3896
3054, 3357, 3358, 3394, 3393, 3861, 3862, 3898, 3897
3055, 3358, 3359, 3395, 3394, 3862, 3863, 3899, 3898
3056, 3359, 3360, 3396, 3395, 3863, 3864, 3900, 3899
3057, 3360, 3361, 3397, 3396, 3864, 3865, 3901, 3900
3058, 3361, 3362, 3398, 3397, 3865, 3866, 3902, 3901
3059, 3362, 3363, 3399, 3398, 3866, 3867, 3903, 3902
3060, 3363, 3364, 3400, 3399, 3867, 3868, 3904, 3903
3061, 3364, 3365, 3401, 3400, 3868, 3869, 3905, 3904
3062, 3365, 3366, 3402, 3401, 3869, 3870, 3906, 3905
3063, 3366, 3367, 3403, 3402, 3870, 3871, 3907, 3906
3064, 3367, 3368, 3404, 3403, 3871, 3872, 3908, 3907
3065, 3368, 3369, 3405, 3404, 3872, 3873, 3909, 3908
3066, 3369, 3370, 3406, 3405, 3873, 3874, 3910, 3909
3067, 3370, 3371, 3407, 3406, 3874, 3875, 3911, 3910
3068, 3371, 3372, 3408, 3407, 3875, 3876, 3912, 3911
3069, 3372, 3373, 3409, 3408, 3876, 3877, 3913, 3912
3070, 3373, 3374, 3410, 3409, 3877, 3878, 3914, 3913
3071, 3374, 3375, 3411, 3410, 3878, 3879, 3915, 3914
3072, 3375, 3376, 3412, 3411, 3879, 3880, 3916, 3915
3073, 3376, 3377, 3413, 3412, 3880, 3881, 3917, 3916
3074, 3377, 3378, 3414, 3413, 3881, 3882, 3918, 3917
3075, 3378, 3379, 3415, 3414, 3882, 3883, 3919, 3918
3076, 3379, 3380, 3416, 3415, 3883, 3884, 3920, 3919
3077, 3380, 3381, 3417, 3416, 3884, 3885, 3921, 3920
3078, 3381, 3382, 3418, 3417, 3885, 3886, 3922, 3921
3079, 3382, 3383, 3419, 3418, 3886, 3887, 3923, 3922
3080, 3383, 3384, 3420, 3419, 3887, 3888, 3924, 3923
3081, 3385, 3386, 3422, 3421, 3889, 3890, 3926, 3925
3082, 3386, 3387, 3423, 3422, 3890, 3891, 3927, 3926
3083, 3387, 3388, 3424, 3423, 3891, 3892, 3928, 3927
3084, 3388, 3389, 3425, 3424, 3892, 3893, 3929, 3928
3085, 3389, 3390, 3426, 3425, 3893, 3894, 3930, 3929
3086, 3390, 3391, 3427, 3426, 3894, 3895, 3931, 3930
3087, 3391, 3392, 3428, 3427, 3895, 3896, 3932, 3931
3088, 3392, 3393, 3429, 3428, 3896, 3897, 3933, 3932
3089, 3393, 3394, 3430, 3429, 3897, 3898, 3934, 3933
3090, 3394, 3395, 3431, 3430, 3898, 3899, 3935, 3934
3091, 3395, 3396, 3432, 3431, 3899, 3900, 3936, 3935
3092, 3396, 3397, 3433, 3432, 3900, 3901, 3937, 3936
3093, 3397, 3398, 3434, 3433, 3901, 3902, 3938, 3937
3094, 3398, 3399, 3435, 3434, 3902, 3903, 3939, 3938
3095, 3399, 3400, 3436, 3435, 3903, 3904, 3940, 3939
3096, 3400, 3401, 3437, 3436, 3904, 3905, 3941, 3940
3097, 3401, 3402, 3438, 3437, 3905, 3906, 3942, 3941
3098, 3402, 3403, 3439, 3438, 3906, 3907, 3943, 3942
3099, 3403, 3404, 3440, 3439, 3907, 3908, 3944, 3943
3100, 3404, 3405, 3441, 3440, 3908, 3909, 3945, 3944
3101, 3405, 3406, 3442, 3441, 3909, 3910, 3946, 3945
3102, 3406, 3407, 3443, 3442, 3910, 3911, 3947, 3946
3103, 3407, 3408, 3444, 3443, 3911, 3912, 3948, 3947
3104, 3408, 3409, 3445, 3444, 3912, 3913, 3949, 3948
3105, 3409, 3410, 3446, 3445, 3913, 3914, 3950, 3949
3106, 3410, 3411, 3447, 3446, 3914, 3915, 3951, 3950
3107, 3411, 3412, 3448, 3447, 3915, 3916, 3952, 3951
3108, 3412, 3413, 3449, 3448, 3916, 3917, 3953, 3952
3109, 3413, 3414, 3450, 3449, 3917, 3918, 3954, 3953
3110, 3414, 3415, 3451, 3450, 3918, 3919, 3955, 3954
3111, 3415, 3416, 3452, 3451, 3919, 3920, 3956, 3955
3112, 3416, 3417, 3453, 3452, 3920, 3921, 3957, 3956
3113, 3417, 3418, 3454, 3453, 3921, 3922, 3958, 3957
3114, 3418, 3419, 3455, 3454, 3922, 3923, 3959, 3958
3115, 3419, 3420, 3456, 3455, 3923, 3924, 3960, 3959
3116, 3421, 3422, 3458, 3457, 3925, 3926, 3962, 3961
3117, 3422, 3423, 3459, 3458, 3926, 3927, 3963, 3962
3118, 3423, 3424, 3460, 3459, 3927, 3928, 3964, 3963
3119, 3424, 3425, 3461, 3460, 3928, 3929, 3965, 3964
3120, 3425, 3426, 3462, 3461, 3929, 3930, 3966, 3965
3121, 3426, 3427, 3463, 3462, 3930, 3931, 3967, 3966
3122, 3427, 3428, 3464, 3463, 3931, 3932, 3968, 3967
3123, 3428, 3429, 3465, 3464, 3932, 3933, 3969, 3968
3124, 3429, 3430, 3466, 3465, 3933, 3934, 3970, 3969
3125, 3430, 3431, 3467, 3466, 3934, 3935, 3971, 3970
3126, 3431, 3432, 3468, 3467, 3935, 3936, 3972, 3971
3127, 3432, 3433, 3469, 3468, 3936, 3937, 3973, 3972
3128, 3433, 3434, 3470, 3469, 3937, 3938, 3974, 3973
3129, 3434, 3435, 3471, 3470, 3938, 3939, 3975, 3974
3130, 3435, 3436, 3472, 3471, 3939, 3940, 3976, 3975
3131, 3436, 3437, 3473, 3472, 3940, 3941, 3977, 3976
3132, 3437, 3438, 3474, 3473, 3941, 3942, 3978, 3977
3133, 3438, 3439, 3475, 3474, 3942, 3943, 3979, 3978
3134, 3439, 3440, 3476, 3475, 3943, 3944, 3980, 3979
3135, 3440, 3441, 3477, 3476, 3944, 3945, 3981, 3980
3136, 3441, 3442, 3478, 3477, 3945, 3946, 3982, 3981
3137, 3442, 3443, 3479, 3478, 3946, 3947, 3983, 3982
3138, 3443, 3444, 3480, 3479, 3947, 3948, 3984, 3983
3139, 3444, 3445, 3481, 3480, 3948, 3949, 3985, 3984
3140, 3445, 3446, 3482, 3481, 3949, 3950, 3986, 3985
3141, 3446, 3447, 3483, 3482, 3950, 3951, 3987, 3986
3142, 3447, 3448, 3484, 3483, 3951, 3952, 3988, 3987
3143, 3448, 3449, 3485, 3484, 3952, 3953, 3989, 3988
3144, 3449, 3450, 3486, 3485, 3953, 3954, 3990, 3989
3145, 3450, 3451, 3487, 3486, 3954, 3955, 3991, 3990
3146, 3451, 3452, 3488, 3487, 3955, 3956, 3992, 3991
3147, 3452, 3453, 3489, 3488, 3956, 3957, 3993, 3992
3148, 3453, 3454, 3490, 3489, 3957, 3958, 3994, 3993
3149, 3454, 3455, 3491, 3490, 3958, 3959, 3995, 3994
3150, 3455, 3456, 3492, 3491, 3959, 3960, 3996, 3995
3151, 3457, 3458, 3494, 3493, 3961, 3962, 3998, 3997
3152, 3458, 3459, 3495, 3494, 3962, 3963, 3999, 3998
3153, 3459, 3460, 3496, 3495, 3963, 3964, 4000, 3999
3154, 3460, 3461, 3497, 3496, 3964, 3965, 4001, 4000
3155, 3461, 3462, 3498, 3497, 3965, 3966, 4002, 4001
3156, 3462, 3463, 3499, 3498, 3966, 3967, 4003, 4002
3157, 3463, 3464, 3500, 3499, 3967, 3968, 4004, 4003
3158, 3464, 3465, 3501, 3500, 3968, 3969, 4005, 4004
3159, 3465, 3466, 3502, 3501, 3969, 3970, 4006, 4005
3160, 3466, 3467, 3503, 3502, 3970, 3971, 4007, 4006
3161, 3467, 3468, 3504, 3503, 3971, 3972, 4008, 4007
3162, 3468, 3469, 3505, 3504, 3972, 3973, 4009, 4008
3163, 3469, 3470, 3506, 3505, 3973, 3974, 4010, 4009
3164, 3470, 3471, 3507, 3506, 3974, 3975, 4011, 4010
3165, 3471, 3472, 3508, 3507, 3975, 3976, 4012, 4011
3166, 3472, 3473, 3509, 3508, 3976, 3977, 4013, 4012
3167, 3473, 3474, 3510, 3509, 3977, 3978, 4014, 4013
3168, 3474, 3475, 3511, 3510, 3978, 3979, 4015, 4014
3169, 3475, 3476, 3512, 3511, 3979, 3980, 4016, 4015
3170, 3476, 3477, 3513, 3512, 3980, 3981, 4017, 4016
3171, 3477, 3478, 3514, 3513, 3981, 3982, 4018, 4017
3172, 3478, 3479, 3515, 3514, 3982, 3983, 4019, 4018
3173, 3479, 3480, 3516, 3515, 3983, 3984, 4020, 4019
3174, 3480, 3481, 3517, 3516, 3984, 3985, 4021, 4020
3175, 3481, 3482, 3518, 3517, 3985, 3986, 4022, 4021
3176, 3482, 3483, 3519, 3518, 3986, 3987, 4023, 4022
3177, 3483, 3484, 3520, 3519, 3987, 3988, 4024, 4023
3178, 3484, 3485, 3521, 3520, 3988, 3989, 4025, 4024
3179, 3485, 3486, 3522, 3521, 3989, 3990, 4026, 4025
3180, 3486, 3487, 3523, 3522, 3990, 3991, 4027, 4026
3181, 3487, 3488, 3524, 3523, 3991, 3992, 4028, 4027
3182, 3488, 3489, 3525, 3524, 3992, 3993, 4029, 4028
3183, 3489, 3490, 3526, 3525, 3993, 3994, 4030, 4029
3184, 3490, 3491, 3527, 3526, 3994, 3995, 4031, 4030
3185, 3491, 3492, 3528, 3527, 3995, 3996, 4032, 4031
3186, 3529, 3530, 3566, 3565, 4033, 4034, 4070, 4069
3187, 3530, 3531, 3567, 3566, 4034, 4035, 4071, 4070
3188, 3531, 3532, 3568, 3567, 4035, 4036, 4072, 4071
3189, 3532, 3533, 3569, 3568, 4036, 4037, 4073, 4072
3190, 3533, 3534, 3570, 3569, 4037, 4038, 4074, 4073
3191, 3534, 3535, 3571, 3570, 4038, 4039, 4075, 4074
3192, 3535, 3536, 3572, 3571, 4039, 4040, 4076, 4075
3193, 3536, 3537, 3573, 3572, 4040, 4041, 4077, 4076
3194, 3537, 3538, 3574, 3573, 4041, 4042, 4078, 4077
3195, 3538, 3539, 3575, 3574, 4042, 4043, 4079, 4078
3196, 3539, 3540, 3576, 3575, 4043, 4044, 4080, 4079
3197, 3540, 3541, 3577, 3576, 4044, 4045, 4081, 4080
3198, 3541, 3542, 3578, 3577, 4045, 4046, 4082, 4081
3199, 3542, 3543, 3579, 3578, 4046, 4047, 4083, 4082
3200, 3543, 3544, 3580, 3579, 4047, 4048, 4084, 4083
3201, 3544, 3545, 3581, 3580, 4048, 4049, 4085, 4084
3202, 3545, 3546, 3582, 3581, 4049, 4050, 4086, 4085
3203, 3546, 3547, 3583, 3582, 4050, 4051, 4087, 4086
3204, 3547, 3548, 3584, 3583, 4051, 4052, 4088, 4087
3205, 3548, 3549, 3585, 3584, 4052, 4053, 4089, 4088
3206, 3549, 3550, 3586, 3585, 4053, 4054, 4090, 4089
3207, 3550, 3551, 3587, 3586, 4054, 4055, 4091, 4090
3208, 3551, 3552, 3588, 3587, 4055, 4056, 4092, 4091
3209, 3552, 3553, 3589, 3588, 4056, 4057, 4093, 4092
3210, 3553, 3554, 3590, 3589, 4057, 4058, 4094, 4093
3211, 3554, 3555, 3591, 3590, 4058, 4059, 4095, 4094
3212, 3555, 3556, 3592, 3591, 4059, 4060, 4096, 4095
3213, 3556, 3557, 3593, 3592, 4060, 4061, 4097, 4096
3214, 3557, 3558, 3594, 3593, 4061, 4062, 4098, 4097
3215, 3558, 3559, 3595, 3594, 4062, 4063, 4099, 4098
3216, 3559, 3560, 3596, 3595, 4063, 4064, 4100, 4099
3217, 3560, 3561, 3597, 3596, 4064, 4065, 4101, 4100
3218, 3561, 3562, 3598, 3597, 4065, 4066, 4102, 4101
3219, 3562, 3563, 3599, 3598, 4066, 4067, 4103, 4102
3220, 3563, 3564, 3600, 3599, 4067, 4068, 4104, 4103
3221, 3565, 3566, 3602, 3601, 4069, 4070, 4106, 4105
3222, 3566, 3567, 3603, 3602, 4070, 4071, 4107, 4106
3223, 3567, 3568, 3604, 3603, 4071, 4072, 4108, 4107
3224, 3568, 3569, 3605, 3604, 4072, 4073, 4109, 4108
3225, 3569, 3570, 3606, 3605, 4073, 4074, 4110, 4109
3226, 3570, 3571, 3607, 3606, 4074, 4075, 4111, 4110
3227, 3571, 3572, 3608, 3607, 4075, 4076, 4112, 4111
3228, 3572, 3573, 3609, 3608, 4076, 4077, 4113, 4112
3229, 3573, 3574, 3610, 3609, 4077, 4078, 4114, 4113
3230, 3574, 3575, 3611, 3610, 4078, 4079, 4115, 4114
3231, 3575, 3576, 3612, 3611, 4079, 4080, 4116, 4115
3232, 3576, 3577, 3613, 3612, 4080, 4081, 4117, 4116
3233, 3577, 3578, 3614, 3613, 4081, 4082, 4118, 4117
3234, 3578, 3579, 3615, 3614, 4082, 4083, 4119, 4118
3235, 3579, 3580, 3616, 3615, 4083, 4084, 4120, 4119
3236, 3580, 3581, 3617, 3616, 4084, 4085, 4121, 4120
3237, 3581, 3582, 3618, 3617, 4085, 4086, 4122, 4121
3238, 3582, 3583, 3619, 3618, 4086, 4087, 4123, 4122
3239, 3583, 3584, 3620, 3619, 4087, 4088, 4124, 4123
3240, 3584, 3585, 3621, 3620, 4088, 4089, 4125, 4124
3241, 3585, 3586, 3622, 3621, 4089, 4090, 4126, 4125
3242, 3586, 3587, 3623, 3622, 4090, 4091, 4127, 4126
3243, 3587, 3588, 3624, 3623, 4091, 4092, 4128, 4127
3244, 3588, 3589, 3625, 3624, 4092, 4093, 4129, 4128
3245, 3589, 3590, 3626, 3625, 4093, 4094, 4130, 4129
3246, 3590, 3591, 3627, 3626, 4094, 4095, 4131, 4130
3247, 3591, 3592, 3628, 3627, 4095, 4096, 4132, 4131
3248, 3592, 3593, 3629, 3628, 4096, 4097, 4133, 4132
3249, 3593, 3594, 3630, 3629, 4097, 4098, 4134, 4133
3250, 3594, 3595, 3631, 3630, 4098, 4099, 4135, 4134
3251, 3595, 3596, 3632, 3631, 4099, 4100, 4136, 4135
3252, 3596, 3597, 3633, 3632, 4100, 4101, 4137, 4136
3253, 3597, 3598, 3634, 3633, 4101, 4102, 4138, 4137
3254, 3598, 3599, 3635, 3634, 4102, 4103, 4139, 4138
3255, 3599, 3600, 3636, 3635, 4103, 4104, 4140, 4139
3256, 3601, 3602, 3638, 3637, 4105, 4106, 4142, 4141
3257, 3602, 3603, 3639, 3638, 4106, 4107, 4143, 4142
3258, 3603, 3604, 3640, 3639, 4107, 4108, 4144, 4143
3259, 3604, 3605, 3641, 3640, 4108, 4109, 4145, 4144
3260, 3605, 3606, 3642, 3641, 4109, 4110, 4146, 4145
3261, 3606, 3607, 3643, 3642, 4110, 4111, 4147, 4146
3262, 3607, 3608, 3644, 3643, 4111, 4112, 4148, 4147
3263, 3608, 3609, 3645, 3644, 4112, 4113, 4149, 4148
3264, 3609, 3610, 3646, 3645, 4113, 4114, 4150, 4149
3265, 3610, 3611, 3647, 3646, 4114, 4115, 4151, 4150
3266, 3611, 3612, 3648, 3647, 4115, 4116, 4152, 4151
3267, 3612, 3613, 3649, 3648, 4116, 4117, 4153, 4152
3268, 3613, 3614, 3650, 3649, 4117, 4118, 4154, 4153
3269, 3614, 3615, 3651, 3650, 4118, 4119, 4155, 4154
3270, 3615, 3616, 3652, 3651, 4119, 4120, 4156, 4155
3271, 3616, 3617, 3653, 3652, 4120, 4121, 4157, 4156
3272, 3617, 3618, 3654, 3653, 4121, 4122, 4158, 4157
3273, 3618, 3619, 3655, 3654, 4122, 4123, 4159, 4158
3274, 3619, 3620, 3656, 3655, 4123, 4124, 4160, 4159
3275, 3620, 3621, 3657, 3656, 4124, 4125, 4161, 4160
3276, 3621, 3622, 3658, 3657, 4125, 4126, 4162, 4161
3277, 3622, 3623, 3659, 3658, 4126, 4127, 4163, 4162
3278, 3623, 3624, 3660, 3659, 4127, 4128, 4164, 4163
3279, 3624, 3625, 3661, 3660, 4128, 4129, 4165, 4164
3280, 3625, 3626, 3662, 3661, 4129, 4130, 4166, 4165
3281, 3626, 3627, 3663, 3662, 4130, 4131, 4167, 4166
3282, 3627, 3628, 3664, 3663, 4131, 4132, 4168, 4167
3283, 3628, 3629, 3665, 3664, 4132, 4133, 4169, 4168
3284, 3629, 3630, 3666, 3665, 4133, 4134, 4170, 4169
3285, 3630, 3631, 3667, 3666, 4134, 4135, 4171, 4170
3286, 3631, 3632, 3668, 3667, 4135, 4136, 4172, 4171
3287, 3632, 3633, 3669, 3668, 4136, 4137, 4173, 4172
3288, 3633, 3634, 3670, 3669, 4137, 4138, 4174, 4173
3289, 3634, 3635, 3671, 3670, 4138, 4139, 4175, 4174
3290, 3635, 3636, 3672, 3671, 4139, 4140, 4176, 4175
3291, 3637, 3638, 3674, 3673, 4141, 4142, 4178, 4177
3292, 3638, 3639, 3675, 3674, 4142, 4143, 4179, 4178
3293, 3639, 3640, 3676, 3675, 4143, 4144, 4180, 4179
3294, 3640, 3641, 3677, 3676, 4144, 4145, 4181, 4180
3295, 3641, 3642, 3678, 3677, 4145, 4146, 4182, 4181
3296, 3642, 3643, 3679, 3678, 4146, 4147, 4183, 4182
3297, 3643, 3644, 3680, 3679, 4147, 4148, 4184, 4183
3298, 3644, 3645, 3681, 3680, 4148, 4149, 4185, 4184
3299, 3645, 3646, 3682, 3681, 4149, 4150, 4186, 4185
3300, 3646, 3647, 3683, 3682, 4150, 4151, 4187, 4186
3301, 3647, 3648, 3684, 3683, 4151, 4152, 4188, 4187
3302, 3648, 3649, 3685, 3684, 4152, 4153, 4189, 4188
3303, 3649, 3650, 3686, 3685, 4153, 4154, 4190, 4189
3304, 3650, 3651, 3687, 3686, 4154, 4155, 4191, 4190
3305, 3651, 3652, 3688, 3687, 4155, 4156, 4192, 4191
3306, 3652, 3653, 3689, 3688, 4156, 4157, 4193, 4192
3307, 3653, 3654, 3690, 3689, 4157, 4158, 4194, 4193
3308, 3654, 3655, 3691, 3690, 4158, 4159, 4195, 4194
3309, 3655, 3656, 3692, 3691, 4159, 4160, 4196, 4195
3310, 3656, 3657, 3693, 3692, 4160, 4161, 4197, 4196
3311, 3657, 3658, 3694, 3693, 4161, 4162, 4198, 4197
3312, 3658, 3659, 3695, 3694, 4162, 4163, 4199, 4198
3313, 3659, 3660, 3696, 3695, 4163, 4164, 4200, 4199
3314, 3660, 3661, 3697, 3696, 4164, 4165, 4201, 4200
3315, 3661, 3662, 3698, 3697, 4165, 4166, 4202, 4201
3316, 3662, 3663, 3699, 3698, 4166, 4167, 4203, 4202
3317, 3663, 3664, 3700, 3699, 4167, 4168, 4204, 4203
3318, 3664, 3665, 3701, 3700, 4168, 4169, 4205, 4204
3319, 3665, 3666, 3702, 3701, 4169, 4170, 4206, 4205
3320, 3666, 3667, 3703, 3702, 4170, 4171, 4207, 4206
3321, 3667, 3668, 3704, 3703, 4171, 4172, 4208, 4207
3322, 3668, 3669, 3705, 3704, 4172, 4173, 4209, 4208
3323, 3669, 3670, 3706, 3705, 4173, 4174, 4210, 4209
3324, 3670, 3671, 3707, 3706, 4174, 4175, 4211, 4210
3325, 3671, 3672, 3708, 3707, 4175, 4176, 4212, 4211
3326, 3673, 3674, 3710, 3709, 4177, 4178, 4214, 4213
3327, 3674, 3675, 3711, 3710, 4178, 4179, 4215, 4214
3328, 3675, 3676, 3712, 3711, 4179, 4180, 4216, 4215
3329, 3676, 3677, 3713, 3712, 4180, 4181, 4217, 4216
3330, 3677, 3678, 3714, 3713, 4181, 4182, 4218, 4217
3331, 3678, 3679, 3715, 3714, 4182, 4183, 4219, 4218
3332, 3679, 3680, 3716, 3715, 4183, 4184, 4220, 4219
3333, 3680, 3681, 3717, 3716, 4184, 4185, 4221, 4220
3334, 3681, 3682, 3718, 3717, 4185, 4186, 4222, 4221
3335, 3682, 3683, 3719, 3718, 4186, 4187, 4223, 4222
3336, 3683, 3684, 3720, 3719, 4187, 4188, 4224, 4223
3337, 3684, 3685, 3721, 3720, 4188, 4189, 4225, 4224
3338, 3685, 3686, 3722, 3721, 4189, 4190, 4226, 4225
3339, 3686, 3687, 3723, 3722, 4190, 4191, 4227, 4226
3340, 3687, 3688, 3724, 3723, 4191, 4192, 4228, 4227
3341, 3688, 3689, 3725, 3724, 4192, 4193, 4229, 4228
3342, 3689, 3690, 3726, 3725, 4193, 4194, 4230, 4229
3343, 3690, 3691, 3727, 3726, 4194, 4195, 4231, 4230
3344, 3691, 3692, 3728, 3727, 4195, 4196, 4232, 4231
3345, 3692, 3693, 3729, 3728, 4196, 4197, 4233, 4232
3346, 3693, 3694, 3730, 3729, 4197, 4198, 4234, 4233
3347, 3694, 3695, 3731, 3730, 4198, 4199, 4235, 4234
3348, 3695, 3696, 3732, 3731, 4199, 4200, 4236, 4235
3349, 3696, 3697, 3733, 3732, 4200, 4201, 4237, 4236
3350, 3697, 3698, 3734, 3733, 4201, 4202, 4238, 4237
3351, 3698, 3699, 3735, 3734, 4202, 4203, 4239, 4238
3352, 3699, 3700, 3736, 3735, 4203, 4204, 4240, 4239
3353, 3700, 3701, 3737, 3736, 4204, 4205, 4241, 4240
3354, 3701, 3702, 3738, 3737, 4205, 4206, 4242, 4241
3355, 3702, 3703, 3739, 3738, 4206, 4207, 4243, 4242
3356, 3703, 3704, 3740, 3739, 4207, 4208, 4244, 4243
3357, 3704, 3705, 3741, 3740, 4208, 4209, 4245, 4244
3358, 3705, 3706, 3742, 3741, 4209, 4210, 4246, 4245
3359, 3706, 3707, 3743, 3742, 4210, 4211, 4247, 4246
3360, 3707, 3708, 3744, 3743, 4211, 4212, 4248, 4247
3361, 3709, 3710, 3746, 3745, 4213, 4214, 4250, 4249
3362, 3710, 3711, 3747, 3746, 4214, 4215, 4251, 4250
3363, 3711, 3712, 3748, 3747, 4215, 4216, 4252, 4251
3364, 3712, 3713, 3749, 3748, 4216, 4217, 4253, 4252
3365, 3713, 3714, 3750, 3749, 4217, 4218, 4254, 4253
3366, 3714, 3715, 3751, 3750, 4218, 4219, 4255, 4254
3367, 3715, 3716, 3752, 3751, 4219, 4220, 4256, 4255
3368, 3716, 3717, 3753, 3752, 4220, 4221, 4257, 4256
3369, 3717, 3718, 3754, 3753, 4221, 4222, 4258, 4257
3370, 3718, 3719, 3755, 3754, 4222, 4223, 4259, 4258
3371, 3719, 3720, 3756, 3755, 4223, 4224, 4260, 4259
3372, 3720, 3721, 3757, 3756, 4224, 4225, 4261, 4260
3373, 3721, 3722, 3758, 3757, 4225, 4226, 4262, 4261
3374, 3722, 3723, 3759, 3758, 4226, 4227, 4263, 4262
3375, 3723, 3724, 3760, 3759, 4227, 4228, 4264, 4263
3376, 3724, 3725, 3761, 3760, 4228, 4229, 4265, 4264
3377, 3725, 3726, 3762, 3761, 4229, 4230, 4266, 4265
3378, 3726, 3727, 3763, 3762, 4230, 4231, 4267, 4266
3379, 3727, 3728, 3764, 3763, 4231, 4232, 4268, 4267
3380, 3728, 3729, 3765, 3764, 4232, 4233, 4269, 4268
3381, 3729, 3730, 3766, 3765, 4233, 4234, 4270, 4269
3382, 3730, 3731, 3767, 3766, 4234, 4235, 4271, 4270
3383, 3731, 3732, 3768, 3767, 4235, 4236, 4272, 4271
3384, 3732, 3733, 3769, 3768, 4236, 4237, 4273, 4272
3385, 3733, 3734, 3770, 3769, 4237, 4238, 4274, 4273
3386, 3734, 3735, 3771, 3770, 4238, 4239, 4275, 4274
3387, 3735, 3736, 3772, 3771, 4239, 4240, 4276, 4275
3388, 3736, 3737, 3773, 3772, 4240, 4241, 4277, 4276
3389, 3737, 3738, 3774, 3773, 4241, 4242, 4278, 4277
3390, 3738, 3739, 3775, 3774, 4242, 4243, 4279, 4278
3391, 3739, 3740, 3776, 3775, 4243, 4244, 4280, 4279
3392, 3740, 3741, 3777, 3776, 4244, 4245, 4281, 4280
3393, 3741, 3742, 3778, 3777, 4245, 4246, 4282, 4281
3394, 3742, 3743, 3779, 3778, 4246, 4247, 4283, 4282
3395, 3743, 3744, 3780, 3779, 4247, 4248, 4284, 4283
3396, 3745, 3746, 3782, 3781, 4249, 4250, 4286, 4285
3397, 3746, 3747, 3783, 3782, 4250, 4251, 4287, 4286
3398, 3747, 3748, 3784, 3783, 4251, 4252, 4288, 4287
3399, 3748, 3749, 3785, 3784, 4252, 4253, 4289, 4288
3400, 3749, 3750, 3786, 3785, 4253, 4254, 4290, 4289
3401, 3750, 3751, 3787, 3786, 4254, 4255, 4291, 4290
3402, 3751, 3752, 3788, 3787, 4255, 4256, 4292, 4291
3403, 3752, 3753, 3789, 3788, 4256, 4257, 4293, 4292
3404, 3753, 3754, 3790, 3789, 4257, 4258, 4294, 4293
3405, 3754, 3755, 3791, 3790, 4258, 4259, 4295, 4294
3406, 3755, 3756, 3792, 3791, 4259, 4260, 4296, 4295
3407, 3756, 3757, 3793, 3792, 4260, 4261, 4297, 4296
3408, 3757, 3758, 3794, 3793, 4261, 4262, 4298, 4297
3409, 3758, 3759, 3795, 3794, 4262, 4263, 4299, 4298
3410, 3759, 3760, 3796, 3795, 4263, 4264, 4300, 4299
3411, 3760, 3761, 3797, 3796, 4264, 4265, 4301, 4300
3412, 3761, 3762, 3798, 3797, 4265, 4266, 4302, 4301
3413, 3762, 3763, 3799, 3798, 4266, 4267, 4303, 4302
3414, 3763, 3764, 3800, 3799, 4267, 4268, 4304, 4303
3415, 3764, 3765, 3801, 3800, 4268, 4269, 4305, 4304
3416, 3765, 3766, 3802, 3801, 4269, 4270, 4306, 4305
3417, 3766, 3767, 3803, 3802, 4270, 4271, 4307, 4306
3418, 3767, 3768, 3804, 3803, 4271, 4272, 4308, 4307
3419, 3768, 3769, 3805, 3804, 4272, 4273, 4309, 4308
3420, 3769, 3770, 3806, 3805, 4273, 4274, 4310, 4309
3421, 3770, 3771, 3807, 3806, 4274, 4275, 4311, 4310
3422, 3771, 3772, 3808, 3807, 4275, 4276, 4312, 4311
3423, 3772, 3773, 3809, 3808, 4276, 4277, 4313, 4312
3424, 3773, 3774, 3810, 3809, 4277, 4278, 4314, 4313
3425, 3774, 3775, 3811, 3810, 4278, 4279, 4315, 4314
3426, 3775, 3776, 3812, 3811, 4279, 4280, 4316, 4315
3427, 3776, 3777, 3813, 3812, 4280, 4281, 4317, 4316
3428, 3777, 3778, 3814, 3813, 4281, 4282, 4318, 4317
3429, 3778, 3779, 3815, 3814, 4282, 4283, 4319, 4318
3430, 3779, 3780, 3816, 3815, 4283, 4284, 4320, 4319
3431, 3781, 3782, 3818, 3817, 4285, 4286, 4322, 4321
3432, 3782, 3783, 3819, 3818, 4286, 4287, 4323, 4322
3433, 3783, 3784, 3820, 3819, 4287, 4288, 4324, 4323
3434, 3784, 3785, 3821, 3820, 4288, 4289, 4325, 4324
3435, 3785, 3786, 3822, 3821, 4289, 4290, 4326, 4325
3436, 3786, 3787, 3823, 3822, 4290, 4291, 4327, 4326
3437, 3787, 3788, 3824, 3823, 4291, 4292, 4328, 4327
3438, 3788, 3789, 3825, 3824, 4292, 4293, 4329, 4328
3439, 3789, 3790, 3826, 3825, 4293, 4294, 4330, 4329
3440, 3790, 3791, 3827, 3826, 4294, 4295, 4331, 4330
3441, 3791, 3792, 3828, 3827, 4295, 4296, 4332, 4331
3442, 3792, 3793, 3829, 3828, 4296, 4297, 4333, 4332
3443, 3793, 3794, 3830, 3829, 4297, 4298, 4334, 4333
3444, 3794, 3795, 3831, 3830, 4298, 4299, 4335, 4334
3445, 3795, 3796, 3832, 3831, 4299, 4300, 4336, 4335
3446, 3796, 3797, 3833, 3832, 4300, 4301, 4337, 4336
3447, 3797, 3798, 3834, 3833, 4301, 4302, 4338, 4337
3448, 3798, 3799, 3835, 3834, 4302, 4303, 4339, 4338
3449, 3799, 3800, 3836, 3835, 4303, 4304, 4340, 4339
3450, 3800, 3801, 3837, 3836, 4304, 4305, 4341, 4340
3451, 3801, 3802, 3838, 3837, 4305, 4306, 4342, 4341
3452, 3802, 3803, 3839, 3838, 4306, 4307, 4343, 4342
3453, 3803, 3804, 3840, 3839, 4307, 4308, 4344, 4343
3454, 3804, 3805, 3841, 3840, 4308, 4309, 4345, 4344
3455, 3805, 3806, 3842, 3841, 4309, 4310, 4346, 4345
3456, 3806, 3807, 3843, 3842, 4310, 4311, 4347, 4346
3457, 3807, 3808, 3844, 3843, 4311, 4312, 4348, 4347
3458, 3808, 3809, 3845, 3844, 4312, 4313, 4349, 4348
3459, 3809, 3810, 3846, 3845, 4313, 4314, 4350, 4349
3460, 3810, 3811, 3847, 3846, 4314, 4315, 4351, 4350
3461, 3811, 3812, 3848, 3847, 4315, 4316, 4352, 4351
3462, 3812, 3813, 3849, 3848, 4316, 4317, 4353, 4352
3463, 3813, 3814, 3850, 3849, 4317, 4318, 4354, 4353
3464, 3814, 3815, 3851, 3850, 4318, 4319, 4355, 4354
3465, 3815, 3816, 3852, 3851, 4319, 4320, 4356, 4355
3466, 3817, 3818, 3854, 3853, 4321, 4322, 4358, 4357
3467, 3818, 3819, 3855, 3854, 4322, 4323, 4359, 4358
3468, 3819, 3820, 3856, 3855, 4323, 4324, 4360, 4359
3469, 3820, 3821, 3857, 3856, 4324, 4325, 4361, 4360
3470, 3821, 3822, 3858, 3857, 4325, 4326, 4362, 4361
3471, 3822, 3823, 3859, 3858, 4326, 4327, 4363, 4362
3472, 3823, 3824, 3860, 3859, 4327, 4328, 4364, 4363
3473, 3824, 3825, 3861, 3860, 4328, 4329, 4365, 4364
3474, 3825, 3826, 3862, 3861, 4329, 4330, 4366, 4365
3475, 3826, 3827, 3863, 3862, 4330, 4331, 4367, 4366
3476, 3827, 3828, 3864, 3863, 4331, 4332, 4368, 4367
3477, 3828, 3829, 3865, 3864, 4332, 4333, 4369, 4368
3478, 3829, 3830, 3866, 3865, 4333, 4334, 4370, 4369
3479, 3830, 3831, 3867, 3866, 4334, 4335, 4371, 4370
3480, 3831, 3832, 3868, 3867, 4335, 4336, 4372, 4371
3481, 3832, 3833, 3869, 3868, 4336, 4337, 4373, 4372
3482, 3833, 3834, 3870, 3869, 4337, 4338, 4374, 4373
3483, 3834, 3835, 3871, 3870, 4338, 4339, 4375, 4374
3484, 3835, 3836, 3872, 3871, 4339, 4340, 4376, 4375
3485, 3836, 3837, 3873, 3872, 4340, 4341, 4377, 4376
3486, 3837, 3838, 3874, 3873, 4341, 4342, 4378, 4377
3487, 3838, 3839, 3875, 3874, 4342, 4343, 4379, 4378
3488, 3839, 3840, 3876, 3875, 4343, 4344, 4380, 4379
3489, 3840, 3841, 3877, 3876, 4344, 4345, 4381, 4380
3490, 3841, 3842, 3878, 3877, 4345, 4346, 4382, 4381
3491, 3842, 3843, 3879, 3878, 4346, 4347, 4383, 4382
3492, 3843, 3844, 3880, 3879, 4347, 4348, 4384, 4383
3493, 3844, 3845, 3881, 3880, 4348, 4349, 4385, 4384
3494, 3845, 3846, 3882, 3881, 4349, 4350, 4386, 4385
3495, 3846, 3847, 3883, 3882, 4350, 4351, 4387, 4386
3496, 3847, 3848, 3884, 3883, 4351, 4352, 4388, 4387
3497, 3848, 3849, 3885, 3884, 4352, 4353, 4389, 4388
3498, 3849, 3850, 3886, 3885, 4353, 4354, 4390, 4389
3499, 3850, 3851, 3887, 3886, 4354, 4355, 4391, 4390
3500, 3851, 3852, 3888, 3887, 4355, 4356, 4392, 4391
3501, 3853, 3854, 3890, 3889, 4357, 4358, 4394, 4393
3502, 3854, 3855, 3891, 3890, 4358, 4359, 4395, 4394
3503, 3855, 3856, 3892, 3891, 4359, 4360, 4396, 4395
3504, 3856, 3857, 3893, 3892, 4360, 4361, 4397, 4396
3505, 3857, 3858, 3894, 3893, 4361, 4362, 4398, 4397
3506, 3858, 3859, 3895, 3894, 4362, 4363, 4399, 4398
3507, 3859, 3860, 3896, 3895, 4363, 4364, 4400, 4399
3508, 3860, 3861, 3897, 3896, 4364, 4365, 4401, 4400
3509, 3861, 3862, 3898, 3897, 4365, 4366, 4402, 4401
3510, 3862, 3863, 3899, 3898, 4366, 4367, 4403, 4402
3511, 3863, 3864, 3900, 3899, 4367, 4368, 4404, 4403
3512, 3864, 3865, 3901, 3900, 4368, 4369, 4405, 4404
3513, 3865, 3866, 3902, 3901, 4369, 4370, 4406, 4405
3514, 3866, 3867, 3903, 3902, 4370, 4371, 4407, 4406
3515, 3867, 3868, 3904, 3903, 4371, 4372, 4408, 4407
3516, 3868, 3869, 3905, 3904, 4372, 4373, 4409, 4408
3517, 3869, 3870, 3906, 3905, 4373, 4374, 4410, 4409
3518, 3870, 3871, 3907, 3906, 4374, 4375, 4411, 4410
3519, 3871, 3872, 3908, 3907, 4375, 4376, 4412, 4411
3520, 3872, 3873, 3909, 3908, 4376, 4377, 4413, 4412
3521, 3873, 3874, 3910, 3909, 4377, 4378, 4414, 4413
3522, 3874, 3875, 3911, 3910, 4378, 4379, 4415, 4414
3523, 3875, 3876, 3912, 3911, 4379, 4380, 4416, 4415
3524, 3876, 3877, 3913, 3912, 4380, 4381, 4417, 4416
3525, 3877, 3878, 3914, 3913, 4381, 4382, 4418, 4417
3526, 3878, 3879, 3915, 3914, 4382, 4383, 4419, 4418
3527, 3879, 3880, 3916, 3915, 4383, 4384, 4420, 4419
3528, 3880, 3881, 3917, 3916, 4384, 4385, 4421, 4420
3529, 3881, 3882, 3918, 3917, 4385, 4386, 4422, 4421
3530, 3882, 3883, 3919, 3918, 4386, 4387, 4423, 4422
3531, 3883, 3884, 3920, 3919, 4387, 4388, 4424, 4423
3532, 3884, 3885, 3921, 3920, 4388, 4389, 4425, 4424
3533, 3885, 3886, 3922, 3921, 4389, 4390, 4426, 4425
3534, 3886, 3887, 3923, 3922, 4390, 4391, 4427, 4426
3535, 3887, 3888, 3924, 3923, 4391, 4392, 4428, 4427
3536, 3889, 3890, 3926, 3925, 4393, 4394, 4430, 4429
3537, 3890, 3891, 3927, 3926, 4394, 4395, 4431, 4430
3538, 3891, 3892, 3928, 3927, 4395, 4396, 4432, 4431
3539, 3892, 3893, 3929, 3928, 4396, 4397, 4433, 4432
3540, 3893, 3894, 3930, 3929, 4397, 4398, 4434, 4433
3541, 3894, 3895, 3931, 3930, 4398, 4399, 4435, 4434
3542, 3895, 3896, 3932, 3931, 4399, 4400, 4436, 4435
3543, 3896, 3897, 3933, 3932, 4400, 4401, 4437, 4436
3544, 3897, 3898, 3934, 3933, 4401, 4402, 4438, 4437
3545, 3898, 3899, 3935, 3934, 4402, 4403, 4439, 4438
3546, 3899, 3900, 3936, 3935, 4403, 4404, 4440, 4439
3547, 3900, 3901, 3937, 3936, 4404, 4405, 4441, 4440
3548, 3901, 3902, 3938, 3937, 4405, 4406, 4442, 4441
3549, 3902, 3903, 3939, 3938, 4406, 4407, 4443, 4442
3550, 3903, 3904, 3940, 3939, 4407, 4408, 4444, 4443
3551, 3904, 3905, 3941, 3940, 4408, 4409, 4445, 4444
3552, 3905, 3906, 3942, 3941, 4409, 4410, 4446, 4445
3553, 3906, 3907, 3943, 3942, 4410, 4411, 4447, 4446
3554, 3907, 3908, 3944, 3943, 4411, 4412, 4448, 4447
3555, 3908, 3909, 3945, 3944, 4412, 4413, 4449, 4448
3556, 3909, 3910, 3946, 3945, 4413, 4414, 4450, 4449
3557, 3910, 3911, 3947, 3946, 4414, 4415, 4451, 4450
3558, 3911, 3912, 3948, 3947, 4415, 4416, 4452, 4451
3559, 3912, 3913, 3949, 3948, 4416, 4417, 4453, 4452
3560, 3913, 3914, 3950, 3949, 4417, 4418, 4454, 4453
3561, 3914, 3915, 3951, 3950, 4418, 4419, 4455, 4454
3562, 3915, 3916, 3952, 3951, 4419, 4420, 4456, 4455
3563, 3916, 3917, 3953, 3952, 4420, 4421, 4457, 4456
3564, 3917, 3918, 3954, 3953, 4421, 4422, 4458, 4457
3565, 3918, 3919, 3955, 3954, 4422, 4423, 4459, 4458
3566, 3919, 3920, 3956, 3955, 4423, 4424, 4460, 4459
3567, 3920, 3921, 3957, 3956, 4424, 4425, 4461, 4460
3568, 3921, 3922, 3958, 3957, 4425, 4426, 4462, 4461
3569, 3922, 3923, 3959, 3958, 4426, 4427, 4463, 4462
3570, 3923, 3924, 3960, 3959, 4427, 4428, 4464, 4463
3571, 3925, 3926, 3962, 3961, 4429, 4430, 4466, 4465
3572, 3926, 3927, 3963, 3962, 4430, 4431, 4467, 4466
3573, 3927, 3928, 3964, 3963, 4431, 4432, 4468, 4467
3574, 3928, 3929, 3965, 3964, 4432, 4433, 4469, 4468
3575, 3929, 3930, 3966, 3965, 4433, 4434, 4470, 4469
3576, 3930, 3931, 3967, 3966, 4434, 4435, 4471, 4470
3577, 3931, 3932, 3968, 3967, 4435, 4436, 4472, 4471
3578, 3932, 3933, 3969, 3968, 4436, 4437, 4473, 4472
3579, 3933, 3934, 3970, 3969, 4437, 4438, 4474, 4473
3580, 3934, 3935, 3971, 3970, 4438, 4439, 4475, 4474
3581, 3935, 3936, 3972, 3971, 4439, 4440, 4476, 4475
3582, 3936, 3937, 3973, 3972, 4440, 4441, 4477, 4476
3583, 3937, 3938, 3974, 3973, 4441, 4442, 4478, 4477
3584, 3938, 3939, 3975, 3974, 4442, 4443, 4479, 4478
3585, 3939, 3940, 3976, 3975, 4443, 4444, 4480, 4479
3586, 3940, 3941, 3977, 3976, 4444, 4445, 4481, 4480
3587, 3941, 3942, 3978, 3977, 4445, 4446, 4482, 4481
3588, 3942, 3943, 3979, 3978, 4446, 4447, 4483, 4482
3589, 3943, 3944, 3980, 3979, 4447, 4448, 4484, 4483
3590, 3944, 3945, 3981, 3980, 4448, 4449, 4485, 4484
3591, 3945, 3946, 3982, 3981, 4449, 4450, 4486, 4485
3592, 3946, 3947, 3983, 3982, 4450, 4451, 4487, 4486
3593, 3947, 3948, 3984, 3983, 4451, 4452, 4488, 4487
3594, 3948, 3949, 3985, 3984, 4452, 4453, 4489, 4488
3595, 3949, 3950, 3986, 3985, 4453, 4454, 4490, 4489
3596, 3950, 3951, 3987, 3986, 4454, 4455, 4491, 4490
3597, 3951, 3952, 3988, 3987, 4455, 4456, 4492, 4491
3598, 3952, 3953, 3989, 3988, 4456, 4457, 4493, 4492
3599, 3953, 3954, 3990, 3989, 4457, 4458, 4494, 4493
3600, 3954, 3955, 3991, 3990, 4458, 4459, 4495, 4494
3601, 3955, 3956, 3992, 3991, 4459, 4460, 4496, 4495
3602, 3956, 3957, 3993, 3992, 4460, 4461, 4497, 4496
3603, 3957, 3958, 3994, 3993, 4461, 4462, 4498, 4497
3604, 3958, 3959, 3995, 3994, 4462, 4463, 4499, 4498
3605, 3959, 3960, 3996, 3995, 4463, 4464, 4500, 4499
3606, 3961, 3962, 3998, 3997, 4465, 4466, 4502, 4501
3607, 3962, 3963, 3999, 3998, 4466, 4467, 4503, 4502
3608, 3963, 3964, 4000, 3999, 4467, 4468, 4504, 4503
3609, 3964, 3965, 4001, 4000, 4468, 4469, 4505, 4504
3610, 3965, 3966, 4002, 4001, 4469, 4470, 4506, 4505
3611, 3966, 3967, 4003, 4002, 4470, 4471, 4507, 4506
3612, 3967, 3968, 4004, 4003, 4471, 4472, 4508, 4507
3613, 3968, 3969, 4005, 4004, 4472, 4473, 4509, 4508
3614, 3969, 3970, 4006, 4005, 4473, 4474, 4510, 4509
3615, 3970, 3971, 4007, 4006, 4474, 4475, 4511, 4510
3616, 3971, 3972, 4008, 4007, 4475, 4476, 4512, 4511
3617, 3972, 3973, 4009, 4008, 4476, 4477, 4513, 4512
3618, 3973, 3974, 4010, 4009, 4477, 4478, 4514, 4513
3619, 3974, 3975, 4011, 4010, 4478, 4479, 4515, 4514
3620, 3975, 3976, 4012, 4011, 4479, 4480, 4516, 4515
3621, 3976, 3977, 4013, 4012, 4480, 4481, 4517, 4516
3622, 3977, 3978, 4014, 4013, 4481, 4482, 4518, 4517
3623, 3978, 3979, 4015, 4014, 4482, 4483, 4519, 4518
3624, 3979, 3980, 4016, 4015, 4483, 4484, 4520, 4519
3625, 3980, 3981, 4017, 4016, 4484, 4485, 4521, 4520
3626, 3981, 3982, 4018, 4017, 4485, 4486, 4522, 4521
3627, 3982, 3983, 4019, 4018, 4486, 4487, 4523, 4522
3628, 3983, 3984, 4020, 4019, 4487, 4488, 4524, 4523
3629, 3984, 3985, 4021, 4020, 4488, 4489, 4525, 4524
3630, 3985, 3986, 4022, 4021, 4489, 4490, 4526, 4525
3631, 3986, 3987, 4023, 4022, 4490, 4491, 4527, 4526
3632, 3987, 3988, 4024, 4023, 4491, 4492, 4528, 4527
3633, 3988, 3989, 4025, 4024, 4492, 4493, 4529, 4528
3634, 3989, 3990, 4026, 4025, 4493, 4494, 4530, 4529
3635, 3990, 3991, 4027, 4026, 4494, 4495, 4531, 4530
3636, 3991, 3992, 4028, 4027, 4495, 4496, 4532, 4531
3637, 3992, 3993, 4029, 4028, 4496, 4497, 4533, 4532
3638, 3993, 3994, 4030, 4029, 4497, 4498, 4534, 4533
3639, 3994, 3995, 4031, 4030, 4498, 4499, 4535, 4534
3640, 3995, 3996, 4032, 4031, 4499, 4500, 4536, 4535
3641, 4033, 4034, 4070, 4069, 4537, 4538, 4574, 4573
3642, 4034, 4035, 4071, 4070, 4538, 4539, 4575, 4574
3643, 4035, 4036, 4072, 4071, 4539, 4540, 4576, 4575
3644, 4036, 4037, 4073, 4072, 4540, 4541, 4577, 4576
3645, 4037, 4038, 4074, 4073, 4541, 4542, 4578, 4577
3646, 4038, 4039, 4075, 4074, 4542, 4543, 4579, 4578
3647, 4039, 4040, 4076, 4075, 4543, 4544, 4580, 4579
3648, 4040, 4041, 4077, 4076, 4544, 4545, 4581, 4580
3649, 4041, 4042, 4078, 4077, 4545, 4546, 4582, 4581
3650, 4042, 4043, 4079, 4078, 4546, 4547, 4583, 4582
3651, 4043, 4044, 4080, 4079, 4547, 4548, 4584, 4583
3652, 4044, 4045, 4081, 4080, 4548, 4549, 4585, 4584
3653, 4045, 4046, 4082, 4081, 4549, 4550, 4586, 4585
3654, 4046, 4047, 4083, 4082, 4550, 4551, 4587, 4586
3655, 4047, 4048, 4084, 4083, 4551, 4552, 4588, 4587
3656, 4048, 4049, 4085, 4084, 4552, 4553, 4589, 4588
3657, 4049, 4050, 4086, 4085, 4553, 4554, 4590, 4589
3658, 4050, 4051, 4087, 4086, 4554, 4555, 4591, 4590
3659, 4051, 4052, 4088, 4087, 4555, 4556, 4592, 4591
3660, 4052, 4053, 4089, 4088, 4556, 4557, 4593, 4592
3661, 4053, 4054, 4090, 4089, 4557, 4558, 4594, 4593
3662, 4054, 4055, 4091, 4090, 4558, 4559, 4595, 4594
3663, 4055, 4056, 4092, 4091, 4559, 4560, 4596, 4595
3664, 4056, 4057, 4093, 4092, 4560, 4561, 4597, 4596
3665, 4057, 4058, 4094, 4093, 4561, 4562, 4598, 4597
3666, 4058, 4059, 4095, 4094, 4562, 4563, 4599, 4598
3667, 4059, 4060, 4096, 4095, 4563, 4564, 4600, 4599
3668, 4060, 4061, 4097, 4096, 4564, 4565, 4601, 4600
3669, 4061, 4062, 4098, 4097, 4565, 4566, 4602, 4601
3670, 4062, 4063, 4099, 4098, 4566, 4567, 4603, 4602
3671, 4063, 4064, 4100, 4099, 4567, 4568, 4604, 4603
3672, 4064, 4065, 4101, 4100, 4568, 4569, 4605, 4604
3673, 4065, 4066, 4102, 4101, 4569, 4570, 4606, 4605
3674, 4066, 4067, 4103, 4102, 4570, 4571, 4607, 4606
3675, 4067, 4068, 4104, 4103, 4571, 4572, 4608, 4607
3676, 4069, 4070, 4106, 4105, 4573, 4574, 4610, 4609
3677, 4070, 4071, 4107, 4106, 4574, 4575, 4611, 4610
3678, 4071, 4072, 4108, 4107, 4575, 4576, 4612, 4611
3679, 4072, 4073, 4109, 4108, 4576, 4577, 4613, 4612
3680, 4073, 4074, 4110, 4109, 4577, 4578, 4614, 4613
3681, 4074, 4075, 4111, 4110, 4578, 4579, 4615, 4614
3682, 4075, 4076, 4112, 4111, 4579, 4580, 4616, 4615
3683, 4076, 4077, 4113, 4112, 4580, 4581, 4617, 4616
3684, 4077, 4078, 4114, 4113, 4581, 4582, 4618, 4617
3685, 4078, 4079, 4115, 4114, 4582, 4583, 4619, 4618
3686, 4079, 4080, 4116, 4115, 4583, 4584, 4620, 4619
3687, 4080, 4081, 4117, 4116, 4584, 4585, 4621, 4620
3688, 4081, 4082, 4118, 4117, 4585, 4586, 4622, 4621
3689, 4082, 4083, 4119, 4118, 4586, 4587, 4623, 4622
3690, 4083, 4084, 4120, 4119, 4587, 4588, 4624, 4623
3691, 4084, 4085, 4121, 4120, 4588, 4589, 4625, 4624
3692, 4085, 4086, 4122, 4121, 4589, 4590, 4626, 4625
3693, 4086, 4087, 4123, 4122, 4590, 4591, 4627, 4626
3694, 4087, 4088, 4124, 4123, 4591, 4592, 4628, 4627
3695, 4088, 4089, 4125, 4124, 4592, 4593, 4629, 4628
3696, 4089, 4090, 4126, 4125, 4593, 4594, 4630, 4629
3697, 4090, 4091, 4127, 4126, 4594, 4595, 4631, 4630
3698, 4091, 4092, 4128, 4127, 4595, 4596, 4632, 4631
3699, 4092, 4093, 4129, 4128, 4596, 4597, 4633, 4632
3700, 4093, 4094, 4130, 4129, 4597, 4598, 4634, 4633
3701, 4094, 4095, 4131, 4130, 4598, 4599, 4635, 4634
3702, 4095, 4096, 4132, 4131, 4599, 4600, 4636, 4635
3703, 4096, 4097, 4133, 4132, 4600, 4601, 4637, 4636
3704, 4097, 4098, 4134, 4133, 4601, 4602, 4638, 4637
3705, 4098, 4099, 4135, 4134, 4602, 4603, 4639, 4638
3706, 4099, 4100, 4136, 4135, 4603, 4604, 4640, 4639
3707, 4100, 4101, 4137, 4136, 4604, 4605, 4641, 4640
3708, 4101, 4102, 4138, 4137, 4605, 4606, 4642, 4641
3709, 4102, 4103, 4139, 4138, 4606, 4607, 4643, 4642
3710, 4103, 4104, 4140, 4139, 4607, 4608, 4644, 4643
3711, 4105, 4106, 4142, 4141, 4609, 4610, 4646, 4645
3712, 4106, 4107, 4143, 4142, 4610, 4611, 4647, 4646
3713, 4107, 4108, 4144, 4143, 4611, 4612, 4648, 4647
3714, 4108, 4109, 4145, 4144, 4612, 4613, 4649, 4648
3715, 4109, 4110, 4146, 4145, 4613, 4614, 4650, 4649
3716, 4110, 4111, 4147, 4146, 4614, 4615, 4651, 4650
3717, 4111, 4112, 4148, 4147, 4615, 4616, 4652, 4651
3718, 4112, 4113, 4149, 4148, 4616, 4617, 4653, 4652
3719, 4113, 4114, 4150, 4149, 4617, 4618, 4654, 4653
3720, 4114, 4115, 4151, 4150, 4618, 4619, 4655, 4654
3721, 4115, 4116, 4152, 4151, 4619, 4620, 4656, 4655
3722, 4116, 4117, 4153, 4152, 4620, 4621, 4657, 4656
3723, 4117, 4118, 4154, 4153, 4621, 4622, 4658, 4657
3724, 4118, 4119, 4155, 4154, 4622, 4623, 4659, 4658
3725, 4119, 4120, 4156, 4155, 4623, 4624, 4660, 4659
3726, 4120, 4121, 4157, 4156, 4624, 4625, 4661, 4660
3727, 4121, 4122, 4158, 4157, 4625, 4626, 4662, 4661
3728, 4122, 4123, 4159, 4158, 4626, 4627, 4663, 4662
3729, 4123, 4124, 4160, 4159, 4627, 4628, 4664, 4663
3730, 4124, 4125, 4161, 4160, 4628, 4629, 4665, 4664
3731, 4125, 4126, 4162, 4161, 4629, 4630, 4666, 4665
3732, 4126, 4127, 4163, 4162, 4630, 4631, 4667, 4666
3733, 4127, 4128, 4164, 4163, 4631, 4632, 4668, 4667
3734, 4128, 4129, 4165, 4164, 4632, 4633, 4669, 4668
3735, 4129, 4130, 4166, 4165, 4633, 4634, 4670, 4669
3736, 4130, 4131, 4167, 4166, 4634, 4635, 4671, 4670
3737, 4131, 4132, 4168, 4167, 4635, 4636, 4672, 4671
3738, 4132, 4133, 4169, 4168, 4636, 4637, 4673, 4672
3739, 4133, 4134, 4170, 4169, 4637, 4638, 4674, 4673
3740, 4134, 4135, 4171, 4170, 4638, 4639, 4675, 4674
3741, 4135, 4136, 4172, 4171, 4639, 4640, 4676, 4675
3742, 4136, 4137, 4173, 4172, 4640, 4641, 4677, 4676
3743, 4137, 4138, 4174, 4173, 4641, 4642, 4678, 4677
3744, 4138, 4139, 4175, 4174, 4642, 4643, 4679, 4678
3745, 4139, 4140, 4176, 4175, 4643, 4644, 4680, 4679
3746, 4141, 4142, 4178, 4177, 4645, 4646, 4682, 4681
3747, 4142, 4143, 4179, 4178, 4646, 4647, 4683, 4682
3748, 4143, 4144, 4180, 4179, 4647, 4648, 4684, 4683
3749, 4144, 4145, 4181, 4180, 4648, 4649, 4685, 4684
3750, 4145, 4146, 4182, 4181, 4649, 4650, 4686, 4685
3751, 4146, 4147, 4183, 4182, 4650, 4651, 4687, 4686
3752, 4147, 4148, 4184, 4183, 4651, 4652, 4688, 4687
3753, 4148, 4149, 4185, 4184, 4652, 4653, 4689, 4688
3754, 4149, 4150, 4186, 4185, 4653, 4654, 4690, 4689
3755, 4150, 4151, 4187, 4186, 4654, 4655, 4691, 4690
3756, 4151, 4152, 4188, 4187, 4655, 4656, 4692, 4691
3757, 4152, 4153, 4189, 4188, 4656, 4657, 4693, 4692
3758, 4153, 4154, 4190, 4189, 4657, 4658, 4694, 4693
3759, 4154, 4155, 4191, 4190, 4658, 4659, 4695, 4694
3760, 4155, 4156, 4192, 4191, 4659, 4660, 4696, 4695
3761, 4156, 4157, 4193, 4192, 4660, 4661, 4697, 4696
3762, 4157, 4158, 4194, 4193, 4661, 4662, 4698, 4697
3763, 4158, 4159, 4195, 4194, 4662, 4663, 4699, 4698
3764, 4159, 4160, 4196, 4195, 4663, 4664, 4700, 4699
3765, 4160, 4161, 4197, 4196, 4664, 4665, 4701, 4700
3766, 4161, 4162, 4198, 4197, 4665, 4666, 4702, 4701
3767, 4162, 4163, 4199, 4198, 4666, 4667, 4703, 4702
3768, 4163, 4164, 4200, 4199, 4667, 4668, 4704, 4703
3769, 4164, 4165, 4201, 4200, 4668, 4669, 4705, 4704
3770, 4165, 4166, 4202, 4201, 4669, 4670, 4706, 4705
3771, 4166, 4167, 4203, 4202, 4670, 4671, 4707, 4706
3772, 4167, 4168, 4204, 4203, 4671, 4672, 4708, 4707
3773, 4168, 4169, 4205, 4204, 4672, 4673, 4709, 4708
3774, 4169, 4170, 4206, 4205, 4673, 4674, 4710, 4709
3775, 4170, 4171, 4207, 4206, 4674, 4675, 4711, 4710
3776, 4171, 4172, 4208, 4207, 4675, 4676, 4712, 4711
3777, 4172, 4173, 4209, 4208, 4676, 4677, 4713, 4712
3778, 4173, 4174, 4210, 4209, 4677, 4678, 4714, 4713
3779, 4174, 4175, 4211, 4210, 4678, 4679, 4715, 4714
3780, 4175, 4176, 4212, 4211, 4679, 4680, 4716, 4715
3781, 4177, 4178, 4214, 4213, 4681, 4682, 4718, 4717
3782, 4178, 4179, 4215, 4214, 4682, 4683, 4719, 4718
3783, 4179, 4180, 4216, 4215, 4683, 4684, 4720, 4719
3784, 4180, 4181, 4217, 4216, 4684, 4685, 4721, 4720
3785, 4181, 4182, 4218, 4217, 4685, 4686, 4722, 4721
3786, 4182, 4183, 4219, 4218, 4686, 4687, 4723, 4722
3787, 4183, 4184, 4220, 4219, 4687, 4688, 4724, 4723
3788, 4184, 4185, 4221, 4220, 4688, 4689, 4725, 4724
3789, 4185, 4186, 4222, 4221, 4689, 4690, 4726, 4725
3790, 4186, 4187, 4223, 4222, 4690, 4691, 4727, 4726
3791, 4187, 4188, 4224, 4223, 4691, 4692, 4728, 4727
3792, 4188, 4189, 4225, 4224, 4692, 4693, 4729, 4728
3793, 4189, 4190, 4226, 4225, 4693, 4694, 4730, 4729
3794, 4190, 4191, 4227, 4226, 4694, 4695, 4731, 4730
3795, 4191, 4192, 4228, 4227, 4695, 4696, 4732, 4731
3796, 4192, 4193, 4229, 4228, 4696, 4697, 4733, 4732
3797, 4193, 4194, 4230, 4229, 4697, 4698, 4734, 4733
3798, 4194, 4195, 4231, 4230, 4698, 4699, 4735, 4734
3799, 4195, 4196, 4232, 4231, 4699, 4700, 4736, 4735
3800, 4196, 4197, 4233, 4232, 4700, 4701, 4737, 4736
3801, 4197, 4198, 4234, 4233, 4701, 4702, 4738, 4737
3802, 4198, 4199, 4235, 4234, 4702, 4703, 4739, 4738
3803, 4199, 4200, 4236, 4235, 4703, 4704, 4740, 4739
3804, 4200, 4201, 4237, 4236, 4704, 4705, 4741, 4740
3805, 4201, 4202, 4238, 4237, 4705, 4706, 4742, 4741
3806, 4202, 4203, 4239, 4238, 4706, 4707, 4743, 4742
3807, 4203, 4204, 4240, 4239, 4707, 4708, 4744, 4743
3808, 4204, 4205, 4241, 4240, 4708, 4709, 4745, 4744
3809, 4205, 4206, 4242, 4241, 4709, 4710, 4746, 4745
3810, 4206, 4207, 4243, 4242, 4710, 4711, 4747, 4746
3811, 4207, 4208, 4244, 4243, 4711, 4712, 4748, 4747
3812, 4208, 4209, 4245, 4244, 4712, 4713, 4749, 4748
3813, 4209, 4210, 4246, 4245, 4713, 4714, 4750, 4749
3814, 4210, 4211, 4247, 4246, 4714, 4715, 4751, 4750
3815, 4211, 4212, 4248, 4247, 4715, 4716, 4752, 4751
3816, 4213, 4214, 4250, 4249, 4717, 4718, 4754, 4753
3817, 4214, 4215, 4251, 4250, 4718, 4719, 4755, 4754
3818, 4215, 4216, 4252, 4251, 4719, 4720, 4756, 4755
3819, 4216, 4217, 4253, 4252, 4720, 4721, 4757, 4756
3820, 4217, 4218, 4254, 4253, 4721, 4722, 4758, 4757
3821, 4218, 4219, 4255, 4254, 4722, 4723, 4759, 4758
3822, 4219, 4220, 4256, 4255, 4723, 4724, 4760, 4759
3823, 4220, 4221, 4257, 4256, 4724, 4725, 4761, 4760
3824, 4221, 4222, 4258, 4257, 4725, 4726, 4762, 4761
3825, 4222, 4223, 4259, 4258, 4726, 4727, 4763, 4762
3826, 4223, 4224, 4260, 4259, 4727, 4728, 4764, 4763
3827, 4224, 4225, 4261, 4260, 4728, 4729, 4765, 4764
3828, 4225, 4226, 4262, 4261, 4729, 4730, 4766, 4765
3829, 4226, 4227, 4263, 4262, 4730, 4731, 4767, 4766
3830, 4227, 4228, 4264, 4263, 4731, 4732, 4768, 4767
3831, 4228, 4229, 4265, 4264, 4732, 4733, 4769, 4768
3832, 4229, 4230, 4266, 4265, 4733, 4734, 4770, 4769
3833, 4230, 4231, 4267, 4266, 4734, 4735, 4771, 4770
3834, 4231, 4232, 4268, 4267, 4735, 4736, 4772, 4771
3835, 4232, 4233, 4269, 4268, 4736, 4737, 4773, 4772
3836, 4233, 4234, 4270, 4269, 4737, 4738, 4774, 4773
3837, 4234, 4235, 4271, 4270, 4738, 4739, 4775, 4774
3838, 4235, 4236, 4272, 4271, 4739, 4740, 4776, 4775
3839, 4236, 4237, 4273, 4272, 4740, 4741, 4777, 4776
3840, 4237, 4238, 4274, 4273, 4741, 4742, 4778, 4777
3841, 4238, 4239, 4275, 4274, 4742, 4743, 4779, 4778
3842, 4239, 4240, 4276, 4275, 4743, 4744, 4780, 4779
3843, 4240, 4241, 4277, 4276, 4744, 4745, 4781, 4780
3844, 4241, 4242, 4278, 4277, 4745, 4746, 4782, 4781
3845, 4242, 4243, 4279, 4278, 4746, 4747, 4783, 4782
3846, 4243, 4244, 4280, 4279, 4747, 4748, 4784, 4783
3847, 4244, 4245, 4281, 4280, 4748, 4749, 4785, 4784
3848, 4245, 4246, 4282, 4281, 4749, 4750, 4786, 4785
3849, 4246, 4247, 4283, 4282, 4750, 4751, 4787, 4786
3850, 4247, 4248, 4284, 4283, 4751, 4752, 4788, 4787
3851, 4249, 4250, 4286, 4285, 4753, 4754, 4790, 4789
3852, 4250, 4251, 4287, 4286, 4754, 4755, 4791, 4790
3853, 4251, 4252, 4288, 4287, 4755, 4756, 4792, 4791
3854, 4252, 4253, 4289, 4288, 4756, 4757, 4793, 4792
3855, 4253, 4254, 4290, 4289, 4757, 4758, 4794, 4793
3856, 4254, 4255, 4291, 4290, 4758, 4759, 4795, 4794
3857, 4255, 4256, 4292, 4291, 4759, 4760, 4796, 4795
3858, 4256, 4257, 4293, 4292, 4760, 4761, 4797, 4796
3859, 4257, 4258, 4294, 4293, 4761, 4762, 4798, 4797
3860, 4258, 4259, 4295, 4294, 4762, 4763, 4799, 4798
3861, 4259, 4260, 4296, 4295, 4763, 4764, 4800, 4799
3862, 4260, 4261, 4297, 4296, 4764, 4765, 4801, 4800
3863, 4261, 4262, 4298, 4297, 4765, 4766, 4802, 4801
3864, 4262, 4263, 4299, 4298, 4766, 4767, 4803, 4802
3865, 4263, 4264, 4300, 4299, 4767, 4768, 4804, 4803
3866, 4264, 4265, 4301, 4300, 4768, 4769, 4805, 4804
3867, 4265, 4266, 4302, 4301, 4769, 4770, 4806, 4805
3868, 4266, 4267, 4303, 4302, 4770, 4771, 4807, 4806
3869, 4267, 4268, 4304, 4303, 4771, 4772, 4808, 4807
3870, 4268, 4269, 4305, 4304, 4772, 4773, 4809, 4808
3871, 4269, 4270, 4306, 4305, 4773, 4774, 4810, 4809
3872, 4270, 4271, 4307, 4306, 4774, 4775, 4811, 4810
3873, 4271, 4272, 4308, 4307, 4775, 4776, 4812, 4811
3874, 4272, 4273, 4309, 4308, 4776, 4777, 4813, 4812
3875, 4273, 4274, 4310, 4309, 4777, 4778, 4814, 4813
3876, 4274, 4275, 4311, 4310, 4778, 4779, 4815, 4814
3877, 4275, 4276, 4312, 4311, 4779, 4780, 4816, 4815
3878, 4276, 4277, 4313, 4312, 4780, 4781, 4817, 4816
3879, 4277, 4278, 4314, 4313, 4781, 4782, 4818, 4817
3880, 4278, 4279, 4315, 4314, 4782, 4783, 4819, 4818
3881, 4279, 4280, 4316, 4315, 4783, 4784, 4820, 4819
3882, 4280, 4281, 4317, 4316, 4784, 4785, 4821, 4820
3883, 4281, 4282, 4318, 4317, 4785, 4786, 4822, 4821
3884, 4282, 4283, 4319, 4318, 4786, 4787, 4823, 4822
3885, 4283, 4284, 4320, 4319, 4787, 4788, 4824, 4823
3886, 4285, 4286, 4322, 4321, 4789, 4790, 4826, 4825
3887, 4286, 4287, 4323, 4322, 4790, 4791, 4827, 4826
3888, 4287, 4288, 4324, 4323, 4791, 4792, 4828, 4827
3889, 4288, 4289, 4325, 4324, 4792, 4793, 4829, 4828
3890, 4289, 4290, 4326, 4325, 4793, 4794, 4830, 4829
3891, 4290, 4291, 4327, 4326, 4794, 4795, 4831, 4830
3892, 4291, 4292, 4328, 4327, 4795, 4796, 4832, 4831
3893, 4292, 4293, 4329, 4328, 4796, 4797, 4833, 4832
3894, 4293, 4294, 4330, 4329, 4797, 4798, 4834, 4833
3895, 4294, 4295, 4331, 4330, 4798, 4799, 4835, 4834
3896, 4295, 4296, 4332, 4331, 4799, 4800, 4836, 4835
3897, 4296, 4297, 4333, 4332, 4800, 4801, 4837, 4836
3898, 4297, 4298, 4334, 4333, 4801, 4802, 4838, 4837
3899, 4298, 4299, 4335, 4334, 4802, 4803, 4839, 4838
3900, 4299, 4300, 4336, 4335, 4803, 4804, 4840, 4839
3901, 4300, 4301, 4337, 4336, 4804, 4805, 4841, 4840
3902, 4301, 4302, 4338, 4337, 4805, 4806, 4842, 4841
3903, 4302, 4303, 4339, 4338, 4806, 4807, 4843, 4842
3904, 4303, 4304, 4340, 4339, 4807, 4808, 4844, 4843
3905, 4304, 4305, 4341, 4340, 4808, 4809, 4845, 4844
3906, 4305, 4306, 4342, 4341, 4809, 4810, 4846, 4845
3907, 4306, 4307, 4343, 4342, 4810, 4811, 4847, 4846
3908, 4307, 4308, 4344, 4343, 4811, 4812, 4848, 4847
3909, 4308, 4309, 4345, 4344, 4812, 4813, 4849, 4848
3910, 4309, 4310, 4346, 4345, 4813, 4814, 4850, 4849
3911, 4310, 4311, 4347, 4346, 4814, 4815, 4851, 4850
3912, 4311, 4312, 4348, 4347, 4815, 4816, 4852, 4851
3913, 4312, 4313, 4349, 4348, 4816, 4817, 4853, 4852
3914, 4313, 4314, 4350, 4349, 4817, 4818, 4854, 4853
3915, 4314, 4315, 4351, 4350, 4818, 4819, 4855, 4854
3916, 4315, 4316, 4352, 4351, 4819, 4820, 4856, 4855
3917, 4316, 4317, 4353, 4352, 4820, 4821, 4857, 4856
3918, 4317, 4318, 4354, 4353, 4821, 4822, 4858, 4857
3919, 4318, 4319, 4355, 4354, 4822, 4823, 4859, 4858
3920, 4319, 4320, 4356, 4355, 4823, 4824, 4860, 4859
3921, 4321, 4322, 4358, 4357, 4825, 4826, 4862, 4861
3922, 4322, 4323, 4359, 4358, 4826, 4827, 4863, 4862
3923, 4323, 4324, 4360, 4359, 4827, 4828, 4864, 4863
3924, 4324, 4325, 4361, 4360, 4828, 4829, 4865, 4864
3925, 4325, 4326, 4362, 4361, 4829, 4830, 4866, 4865
3926, 4326, 4327, 4363, 4362, 4830, 4831, 4867, 4866
3927, 4327, 4328, 4364, 4363, 4831, 4832, 4868, 4867
3928, 4328, 4329, 4365, 4364, 4832, 4833, 4869, 4868
3929, 4329, 4330, 4366, 4365, 4833, 4834, 4870, 4869
3930, 4330, 4331, 4367, 4366, 4834, 4835, 4871, 4870
3931, 4331, 4332, 4368, 4367, 4835, 4836, 4872, 4871
3932, 4332, 4333, 4369, 4368, 4836, 4837, 4873, 4872
3933, 4333, 4334, 4370, 4369, 4837, 4838, 4874, 4873
3934, 4334, 4335, 4371, 4370, 4838, 4839, 4875, 4874
3935, 4335, 4336, 4372, 4371, 4839, 4840, 4876, 4875
3936, 4336, 4337, 4373, 4372, 4840, 4841, 4877, 4876
3937, 4337, 4338, 4374, 4373, 4841, 4842, 4878, 4877
3938, 4338, 4339, 4375, 4374, 4842, 4843, 4879, 4878
3939, 4339, 4340, 4376, 4375, 4843, 4844, 4880, 4879
3940, 4340, 4341, 4377, 4376, 4844, 4845, 4881, 4880
3941, 4341, 4342, 4378, 4377, 4845, 4846, 4882, 4881
3942, 4342, 4343, 4379, 4378, 4846, 4847, 4883, 4882
3943, 4343, 4344, 4380, 4379, 4847, 4848, 4884, 4883
3944, 4344, 4345, 4381, 4380, 4848, 4849, 4885, 4884
3945, 4345, 4346, 4382, 4381, 4849, 4850, 4886, 4885
3946, 4346, 4347, 4383, 4382, 4850, 4851, 4887, 4886
3947, 4347, 4348, 4384, 4383, 4851, 4852, 4888, 4887
3948, 4348, 4349, 4385, 4384, 4852, 4853, 4889, 4888
3949, 4349, 4350, 4386, 4385, 4853, 4854, 4890, 4889
3950, 4350, 4351, 4387, 4386, 4854, 4855, 4891, 4890
3951, 4351, 4352, 4388, 4387, 4855, 4856, 4892, 4891
3952, 4352, 4353, 4389, 4388, 4856, 4857, 4893, 4892
3953, 4353, 4354, 4390, 4389, 4857, 4858, 4894, 4893
3954, 4354, 4355, 4391, 4390, 4858, 4859, 4895, 4894
3955, 4355, 4356, 4392, 4391, 4859, 4860, 4896, 4895
3956, 4357, 4358, 4394, 4393, 4861, 4862, 4898, 4897
3957, 4358, 4359, 4395, 4394, 4862, 4863, 4899, 4898
3958, 4359, 4360, 4396, 4395, 4863, 4864, 4900, 4899
3959, 4360, 4361, 4397, 4396, 4864, 4865, 4901, 4900
3960, 4361, 4362, 4398, 4397, 4865, 4866, 4902, 4901
3961, 4362, 4363, 4399, 4398, 4866, 4867, 4903, 4902
3962, 4363, 4364, 4400, 4399, 4867, 4868, 4904, 4903
3963, 4364, 4365, 4401, 4400, 4868, 4869, 4905, 4904
3964, 4365, 4366, 4402, 4401, 4869, 4870, 4906, 4905
3965, 4366, 4367, 4403, 4402, 4870, 4871, 4907, 4906
3966, 4367, 4368, 4404, 4403, 4871, 4872, 4908, 4907
3967, 4368, 4369, 4405, 4404, 4872, 4873, 4909, 4908
3968, 4369, 4370, 4406, 4405, 4873, 4874, 4910, 4909
3969, 4370, 4371, 4407, 4406, 4874, 4875, 4911, 4910
3970, 4371, 4372, 4408, 4407, 4875, 4876, 4912, 4911
3971, 4372, 4373, 4409, 4408, 4876, 4877, 4913, 4912
3972, 4373, 4374, 4410, 4409, 4877, 4878, 4914, 4913
3973, 4374, 4375, 4411, 4410, 4878, 4879, 4915, 4914
3974, 4375, 4376, 4412, 4411, 4879, 4880, 4916, 4915
3975, 4376, 4377, 4413, 4412, 4880, 4881, 4917, 4916
3976, 4377, 4378, 4414, 4413, 4881, 4882, 4918, 4917
3977, 4378, 4379, 4415, 4414, 4882, 4883, 4919, 4918
3978, 4379, 4380, 4416, 4415, 4883, 4884, 4920, 4919
3979, 4380, 4381, 4417, 4416, 4884, 4885, 4921, 4920
3980, 4381, 4382, 4418, 4417, 4885, 4886, 4922, 4921
3981, 4382, 4383, 4419, 4418, 4886, 4887, 4923, 4922
3982, 4383, 4384, 4420, 4419, 4887, 4888, 4924, 4923
3983, 4384, 4385, 4421, 4420, 4888, 4889, 4925, 4924
3984, 4385, 4386, 4422, 4421, 4889, 4890, 4926, 4925
3985, 4386, 4387, 4423, 4422, 4890, 4891, 4927, 4926
3986, 4387, 4388, 4424, 4423, 4891, 4892, 4928, 4927
3987, 4388, 4389, 4425, 4424, 4892, 4893, 4929, 4928
3988, 4389, 4390, 4426, 4425, 4893, 4894, 4930, 4929
3989, 4390, 4391, 4427, 4426, 4894, 4895, 4931, 4930
3990, 4391, 4392, 4428, 4427, 4895, 4896, 4932, 4931
3991, 4393, 4394, 4430, 4429, 4897, 4898, 4934, 4933
3992, 4394, 4395, 4431, 4430, 4898, 4899, 4935, 4934
3993, 4395, 4396, 4432, 4431, 4899, 4900, 4936, 4935
3994, 4396, 4397, 4433, 4432, 4900, 4901, 4937, 4936
3995, 4397, 4398, 4434, 4433, 4901, 4902, 4938, 4937
3996, 4398, 4399, 4435, 4434, 4902, 4903, 4939, 4938
3997, 4399, 4400, 4436, 4435, 4903, 4904, 4940, 4939
3998, 4400, 4401, 4437, 4436, 4904, 4905, 4941, 4940
3999, 4401, 4402, 4438, 4437, 4905, 4906, 4942, 4941
4000, 4402, 4403, 4439, 4438, 4906, 4907, 4943, 4942
4001, 4403, 4404, 4440, 4439, 4907, 4908, 4944, 4943
4002, 4404, 4405, 4441, 4440, 4908, 4909, 4945, 4944
4003, 4405, 4406, 4442, 4441, 4909, 4910, 4946, 4945
4004, 4406, 4407, 4443, 4442, 4910, 4911, 4947, 4946
4005, 4407, 4408, 4444, 4443, 4911, 4912, 4948, 4947
4006, 4408, 4409, 4445, 4444, 4912, 4913, 4949, 4948
4007, 4409, 4410, 4446, 4445, 4913, 4914, 4950, 4949
4008, 4410, 4411, 4447, 4446, 4914, 4915, 4951, 4950
4009, 4411, 4412, 4448, 4447, 4915, 4916, 4952, 4951
4010, 4412, 4413, 4449, 4448, 4916, 4917, 4953, 4952
4011, 4413, 4414, 4450, 4449, 4917, 4918, 4954, 4953
4012, 4414, 4415, 4451, 4450, 4918, 4919, 4955, 4954
4013, 4415, 4416, 4452, 4451, 4919, 4920, 4956, 4955
4014, 4416, 4417, 4453, 4452, 4920, 4921, 4957, 4956
4015, 4417, 4418, 4454, 4453, 4921, 4922, 4958, 4957
4016, 4418, 4419, 4455, 4454, 4922, 4923, 4959, 4958
4017, 4419, 4420, 4456, 4455, 4923, 4924, 4960, 4959
4018, 4420, 4421, 4457, 4456, 4924, 4925, 4961, 4960
4019, 4421, 4422, 4458, 4457, 4925, 4926, 4962, 4961
4020, 4422, 4423, 4459, 4458, 4926, 4927, 4963, 4962
4021, 4423, 4424, 4460, 4459, 4927, 4928, 4964, 4963
4022, 4424, 4425, 4461, 4460, 4928, 4929, 4965, 4964
4023, 4425, 4426, 4462, 4461, 4929, 4930, 4966, 4965
4024, 4426, 4427, 4463, 4462, 4930, 4931, 4967, 4966
4025, 4427, 4428, 4464, 4463, 4931, 4932, 4968, 4967
4026, 4429, 4430, 4466, 4465, 4933, 4934, 4970, 4969
4027, 4430, 4431, 4467, 4466, 4934, 4935, 4971, 4970
4028, 4431, 4432, 4468, 4467, 4935, 4936, 4972, 4971
4029, 4432, 4433, 4469, 4468, 4936, 4937, 4973, 4972
4030, 4433, 4434, 4470, 4469, 4937, 4938, 4974, 4973
4031, 4434, 4435, 4471, 4470, 4938, 4939, 4975, 4974
4032, 4435, 4436, 4472, 4471, 4939, 4940, 4976, 4975
4033, 4436, 4437, 4473, 4472, 4940, 4941, 4977, 4976
4034, 4437, 4438, 4474, 4473, 4941, 4942, 4978, 4977
4035, 4438, 4439, 4475, 4474, 4942, 4943, 4979, 4978
4036, 4439, 4440, 4476, 4475, 4943, 4944, 4980, 4979
4037, 4440, 4441, 4477, 4476, 4944, 4945, 4981, 4980
4038, 4441, 4442, 4478, 4477, 4945, 4946, 4982, 4981
4039, 4442, 4443, 4479, 4478, 4946, 4947, 4983, 4982
4040, 4443, 4444, 4480, 4479, 4947, 4948, 4984, 4983
4041, 4444, 4445, 4481, 4480, 4948, 4949, 4985, 4984
4042, 4445, 4446, 4482, 4481, 4949, 4950, 4986, 4985
4043, 4446, 4447, 4483, 4482, 4950, 4951, 4987, 4986
4044, 4447, 4448, 4484, 4483, 4951, 4952, 4988, 4987
4045, 4448, 4449, 4485, 4484, 4952, 4953, 4989, 4988
4046, 4449, 4450, 4486, 4485, 4953, 4954, 4990, 4989
4047, 4450, 4451, 4487, 4486, 4954, 4955, 4991, 4990
4048, 4451, 4452, 4488, 4487, 4955, 4956, 4992, 4991
4049, 4452, 4453, 4489, 4488, 4956, 4957, 4993, 4992
4050, 4453, 4454, 4490, 4489, 4957, 4958, 4994, 4993
4051, 4454, 4455, 4491, 4490, 4958, 4959, 4995, 4994
4052, 4455, 4456, 4492, 4491, 4959, 4960, 4996, 4995
4053, 4456, 4457, 4493, 4492, 4960, 4961, 4997, 4996
4054, 4457, 4458, 4494, 4493, 4961, 4962, 4998, 4997
4055, 4458, 4459, 4495, 4494, 4962, 4963, 4999, 4998
4056, 4459, 4460, 4496, 4495, 4963, 4964, 5000, 4999
4057, 4460, 4461, 4497, 4496, 4964, 4965, 5001, 5000
4058, 4461, 4462, 4498, 4497, 4965, 4966, 5002, 5001
4059, 4462, 4463, 4499, 4498, 4966, 4967, 5003, 5002
4060, 4463, 4464, 4500, 4499, 4967, 4968, 5004, 5003
4061, 4465, 4466, 4502, 4501, 4969, 4970, 5006, 5005
4062, 4466, 4467, 4503, 4502, 4970, 4971, 5007, 5006
4063, 4467, 4468, 4504, 4503, 4971, 4972, 5008, 5007
4064, 4468, 4469, 4505, 4504, 4972, 4973, 5009, 5008
4065, 4469, 4470, 4506, 4505, 4973, 4974, 5010, 5009
4066, 4470, 4471, 4507, 4506, 4974, 4975, 5011, 5010
4067, 4471, 4472, 4508, 4507, 4975, 4976, 5012, 5011
4068, 4472, 4473, 4509, 4508, 4976, 4977, 5013, 5012
4069, 4473, 4474, 4510, 4509, 4977, 4978, 5014, 5013
4070, 4474, 4475, 4511, 4510, 4978, 4979, 5015, 5014
4071, 4475, 4476, 4512, 4511, 4979, 4980, 5016, 5015
4072, 4476, 4477, 4513, 4512, 4980, 4981, 5017, 5016
4073, 4477, 4478, 4514, 4513, 4981, 4982, 5018, 5017
4074, 4478, 4479, 4515, 4514, 4982, 4983, 5019, 5018
4075, 4479, 4480, 4516, 4515, 4983, 4984, 5020, 5019
4076, 4480, 4481, 4517, 4516, 4984, 4985, 5021, 5020
4077, 4481, 4482, 4518, 4517, 4985, 4986, 5022, 5021
4078, 4482, 4483, 4519, 4518, 4986, 4987, 5023, 5022
4079, 4483, 4484, 4520, 4519, 4987, 4988, 5024, 5023
4080, 4484, 4485, 4521, 4520, 4988, 4989, 5025, 5024
4081, 4485, 4486, 4522, 4521, 4989, 4990, 5026, 5025
4082, 4486, 4487, 4523, 4522, 4990, 4991, 5027, 5026
4083, 4487, 4488, 4524, 4523, 4991, 4992, 5028, 5027
4084, 4488, 4489, 4525, 4524, 4992, 4993, 5029, 5028
4085, 4489, 4490, 4526, 4525, 4993, 4994, 5030, 5029
4086, 4490, 4491, 4527, 4526, 4994, 4995, 5031, 5030
4087, 4491, 4492, 4528, 4527, 4995, 4996, 5032, 5031
4088, 4492, 4493, 4529, 4528, 4996, 4997, 5033, 5032
4089, 4493, 4494, 4530, 4529, 4997, 4998, 5034, 5033
4090, 4494, 4495, 4531, 4530, 4998, 4999, 5035, 5034
4091, 4495, 4496, 4532, 4531, 4999, 5000, 5036, 5035
4092, 4496, 4497, 4533, 4532, 5000, 5001, 5037, 5036
4093, 4497, 4498, 4534, 4533, 5001, 5002, 5038, 5037
4094, 4498, 4499, 4535, 4534, 5002, 5003, 5039, 5038
4095, 4499, 4500, 4536, 4535, 5003, 5004, 5040, 5039
4096, 4537, 4538, 4574, 4573, 5041, 5042, 5078, 5077
4097, 4538, 4539, 4575, 4574, 5042, 5043, 5079, 5078
4098, 4539, 4540, 4576, 4575, 5043, 5044, 5080, 5079
4099, 4540, 4541, 4577, 4576, 5044, 5045, 5081, 5080
4100, 4541, 4542, 4578, 4577, 5045, 5046, 5082, 5081
4101, 4542, 4543, 4579, 4578, 5046, 5047, 5083, 5082
4102, 4543, 4544, 4580, 4579, 5047, 5048, 5084, 5083
4103, 4544, 4545, 4581, 4580, 5048, 5049, 5085, 5084
4104, 4545, 4546, 4582, 4581, 5049, 5050, 5086, 5085
4105, 4546, 4547, 4583, 4582, 5050, 5051, 5087, 5086
4106, 4547, 4548, 4584, 4583, 5051, 5052, 5088, 5087
4107, 4548, 4549, 4585, 4584, 5052, 5053, 5089, 5088
4108, 4549, 4550, 4586, 4585, 5053, 5054, 5090, 5089
4109, 4550, 4551, 4587, 4586, 5054, 5055, 5091, 5090
4110, 4551, 4552, 4588, 4587, 5055, 5056, 5092, 5091
4111, 4552, 4553, 4589, 4588, 5056, 5057, 5093, 5092
4112, 4553, 4554, 4590, 4589, 5057, 5058, 5094, 5093
4113, 4554, 4555, 4591, 4590, 5058, 5059, 5095, 5094
4114, 4555, 4556, 4592, 4591, 5059, 5060, 5096, 5095
4115, 4556, 4557, 4593, 4592, 5060, 5061, 5097, 5096
4116, 4557, 4558, 4594, 4593, 5061, 5062, 5098, 5097
4117, 4558, 4559, 4595, 4594, 5062, 5063, 5099, 5098
4118, 4559, 4560, 4596, 4595, 5063, 5064, 5100, 5099
4119, 4560, 4561, 4597, 4596, 5064, 5065, 5101, 5100
4120, 4561, 4562, 4598, 4597, 5065, 5066, 5102, 5101
4121, 4562, 4563, 4599, 4598, 5066, 5067, 5103, 5102
4122, 4563, 4564, 4600, 4599, 5067, 5068, 5104, 5103
4123, 4564, 4565, 4601, 4600, 5068, 5069, 5105, 5104
4124, 4565, 4566, 4602, 4601, 5069, 5070, 5106, 5105
4125, 4566, 4567, 4603, 4602, 5070, 5071, 5107, 5106
4126, 4567, 4568, 4604, 4603, 5071, 5072, 5108, 5107
4127, 4568, 4569, 4605, 4604, 5072, 5073, 5109, 5108
4128, 4569, 4570, 4606, 4605, 5073, 5074, 5110, 5109
4129, 4570, 4571, 4607, 4606, 5074, 5075, 5111, 5110
4130, 4571, 4572, 4608, 4607, 5075, 5076, 5112, 5111
4131, 4573, 4574, 4610, 4609, 5077, 5078, 5114, 5113
4132, 4574, 4575, 4611, 4610, 5078, 5079, 5115, 5114
4133, 4575, 4576, 4612, 4611, 5079, 5080, 5116, 5115
4134, 4576, 4577, 4613, 4612, 5080, 5081, 5117, 5116
4135, 4577, 4578, 4614, 4613, 5081, 5082, 5118, 5117
4136, 4578, 4579, 4615, 4614, 5082, 5083, 5119, 5118
4137, 4579, 4580, 4616, 4615, 5083, 5084, 5120, 5119
4138, 4580, 4581, 4617, 4616, 5084, 5085, 5121, 5120
4139, 4581, 4582, 4618, 4617, 5085, 5086, 5122, 5121
4140, 4582, 4583, 4619, 4618, 5086, 5087, 5123, 5122
4141, 4583, 4584, 4620, 4619, 5087, 5088, 5124, 5123
4142, 4584, 4585, 4621, 4620, 5088, 5089, 5125, 5124
4143, 4585, 4586, 4622, 4621, 5089, 5090, 5126, 5125
4144, 4586, 4587, 4623, 4622, 5090, 5091, 5127, 5126
4145, 4587, 4588, 4624, 4623, 5091, 5092, 5128, 5127
4146, 4588, 4589, 4625, 4624, 5092, 5093, 5129, 5128
4147, 4589, 4590, 4626, 4625, 5093, 5094, 5130, 5129
4148, 4590, 4591, 4627, 4626, 5094, 5095, 5131, 5130
4149, 4591, 4592, 4628, 4627, 5095, 5096, 5132, 5131
4150, 4592, 4593, 4629, 4628, 5096, 5097, 5133, 5132
4151, 4593, 4594, 4630, 4629, 5097, 5098, 5134, 5133
4152, 4594, 4595, 4631, 4630, 5098, 5099, 5135, 5134
4153, 4595, 4596, 4632, 4631, 5099, 5100, 5136, 5135
4154, 4596, 4597, 4633, 4632, 5100, 5101, 5137, 5136
4155, 4597, 4598, 4634, 4633, 5101, 5102, 5138, 5137
4156, 4598, 4599, 4635, 4634, 5102, 5103, 5139, 5138
4157, 4599, 4600, 4636, 4635, 5103, 5104, 5140, 5139
4158, 4600, 4601, 4637, 4636, 5104, 5105, 5141, 5140
4159, 4601, 4602, 4638, 4637, 5105, 5106, 5142, 5141
4160, 4602, 4603, 4639, 4638, 5106, 5107, 5143, 5142
4161, 4603, 4604, 4640, 4639, 5107, 5108, 5144, 5143
4162, 4604, 4605, 4641, 4640, 5108, 5109, 5145, 5144
4163, 4605, 4606, 4642, 4641, 5109, 5110, 5146, 5145
4164, 4606, 4607, 4643, 4642, 5110, 5111, 5147, 5146
4165, 4607, 4608, 4644, 4643, 5111, 5112, 5148, 5147
4166, 4609, 4610, 4646, 4645, 5113, 5114, 5150, 5149
4167, 4610, 4611, 4647, 4646, 5114, 5115, 5151, 5150
4168, 4611, 4612, 4648, 4647, 5115, 5116, 5152, 5151
4169, 4612, 4613, 4649, 4648, 5116, 5117, 5153, 5152
4170, 4613, 4614, 4650, 4649, 5117, 5118, 5154, 5153
4171, 4614, 4615, 4651, 4650, 5118, 5119, 5155, 5154
4172, 4615, 4616, 4652, 4651, 5119, 5120, 5156, 5155
4173, 4616, 4617, 4653, 4652, 5120, 5121, 5157, 5156
4174, 4617, 4618, 4654, 4653, 5121, 5122, 5158, 5157
4175, 4618, 4619, 4655, 4654, 5122, 5123, 5159, 5158
4176, 4619, 4620, 4656, 4655, 5123, 5124, 5160, 5159
4177, 4620, 4621, 4657, 4656, 5124, 5125, 5161, 5160
4178, 4621, 4622, 4658, 4657, 5125, 5126, 5162, 5161
4179, 4622, 4623, 4659, 4658, 5126, 5127, 5163, 5162
4180, 4623, 4624, 4660, 4659, 5127, 5128, 5164, 5163
4181, 4624, 4625, 4661, 4660, 5128, 5129, 5165, 5164
4182, 4625, 4626, 4662, 4661, 5129, 5130, 5166, 5165
4183, 4626, 4627, 4663, 4662, 5130, 5131, 5167, 5166
4184, 4627, 4628, 4664, 4663, 5131, 5132, 5168, 5167
4185, 4628, 4629, 4665, 4664, 5132, 5133, 5169, 5168
4186, 4629, 4630, 4666, 4665, 5133, 5134, 5170, 5169
4187, 4630, 4631, 4667, 4666, 5134, 5135, 5171, 5170
4188, 4631, 4632, 4668, 4667, 5135, 5136, 5172, 5171
4189, 4632, 4633, 4669, 4668, 5136, 5137, 5173, 5172
4190, 4633, 4634, 4670, 4669, 5137, 5138, 5174, 5173
4191, 4634, 4635, 4671, 4670, 5138, 5139, 5175, 5174
4192, 4635, 4636, 4672, 4671, 5139, 5140, 5176, 5175
4193, 4636, 4637, 4673, 4672, 5140, 5141, 5177, 5176
4194, 4637, 4638, 4674, 4673, 5141, 5142, 5178, 5177
4195, 4638, 4639, 4675, 4674, 5142, 5143, 5179, 5178
4196, 4639, 4640, 4676, 4675, 5143, 5144, 5180, 5179
4197, 4640, 4641, 4677, 4676, 5144, 5145, 5181, 5180
4198, 4641, 4642, 4678, 4677, 5145, 5146, 5182, 5181
4199, 4642, 4643, 4679, 4678, 5146, 5147, 5183, 5182
4200, 4643, 4644, 4680, 4679, 5147, 5148, 5184, 5183
4201, 4645, 4646, 4682, 4681, 5149, 5150, 5186, 5185
4202, 4646, 4647, 4683, 4682, 5150, 5151, 5187, 5186
4203, 4647, 4648, 4684, 4683, 5151, 5152, 5188, 5187
4204, 4648, 4649, 4685, 4684, 5152, 5153, 5189, 5188
4205, 4649, 4650, 4686, 4685, 5153, 5154, 5190, 5189
4206, 4650, 4651, 4687, 4686, 5154, 5155, 5191, 5190
4207, 4651, 4652, 4688, 4687, 5155, 5156, 5192, 5191
4208, 4652, 4653, 4689, 4688, 5156, 5157, 5193, 5192
4209, 4653, 4654, 4690, 4689, 5157, 5158, 5194, 5193
4210, 4654, 4655, 4691, 4690, 5158, 5159, 5195, 5194
4211, 4655, 4656, 4692, 4691, 5159, 5160, 5196, 5195
4212, 4656, 4657, 4693, 4692, 5160, 5161, 5197, 5196
4213, 4657, 4658, 4694, 4693, 5161, 5162, 5198, 5197
4214, 4658, 4659, 4695, 4694, 5162, 5163, 5199, 5198
4215, 4659, 4660, 4696, 4695, 5163, 5164, 5200, 5199
4216, 4660, 4661, 4697, 4696, 5164, 5165, 5201, 5200
4217, 4661, 4662, 4698, 4697, 5165, 5166, 5202, 5201
4218, 4662, 4663, 4699, 4698, 5166, 5167, 5203, 5202
4219, 4663, 4664, 4700, 4699, 5167, 5168, 5204, 5203
4220, 4664, 4665, 4701, 4700, 5168, 5169, 5205, 5204
4221, 4665, 4666, 4702, 4701, 5169, 5170, 5206, 5205
4222, 4666, 4667, 4703, 4702, 5170, 5171, 5207, 5206
4223, 4667, 4668, 4704, 4703, 5171, 5172, 5208, 5207
4224, 4668, 4669, 4705, 4704, 5172, 5173, 5209, 5208
4225, 4669, 4670, 4706, 4705, 5173, 5174, 5210, 5209
4226, 4670, 4671, 4707, 4706, 5174, 5175, 5211, 5210
4227, 4671, 4672, 4708, 4707, 5175, 5176, 5212, 5211
4228, 4672, 4673, 4709, 4708, 5176, 5177, 5213, 5212
4229, 4673, 4674, 4710, 4709, 5177, 5178, 5214, 5213
4230, 4674, 4675, 4711, 4710, 5178, 5179, 5215, 5214
4231, 4675, 4676, 4712, 4711, 5179, 5180, 5216, 5215
4232, 4676, 4677, 4713, 4712, 5180, 5181, 5217, 5216
4233, 4677, 4678, 4714, 4713, 5181, 5182, 5218, 5217
4234, 4678, 4679, 4715, 4714, 5182, 5183, 5219, 5218
4235, 4679, 4680, 4716, 4715, 5183, 5184, 5220, 5219
4236, 4681, 4682, 4718, 4717, 5185, 5186, 5222, 5221
4237, 4682, 4683, 4719, 4718, 5186, 5187, 5223, 5222
4238, 4683, 4684, 4720, 4719, 5187, 5188, 5224, 5223
4239, 4684, 4685, 4721, 4720, 5188, 5189, 5225, 5224
4240, 4685, 4686, 4722, 4721, 5189, 5190, 5226, 5225
4241, 4686, 4687, 4723, 4722, 5190, 5191, 5227, 5226
4242, 4687, 4688, 4724, 4723, 5191, 5192, 5228, 5227
4243, 4688, 4689, 4725, 4724, 5192, 5193, 5229, 5228
4244, 4689, 4690, 4726, 4725, 5193, 5194, 5230, 5229
4245, 4690, 4691, 4727, 4726, 5194, 5195, 5231, 5230
4246, 4691, 4692, 4728, 4727, 5195, 5196, 5232, 5231
4247, 4692, 4693, 4729, 4728, 5196, 5197, 5233, 5232
4248, 4693, 4694, 4730, 4729, 5197, 5198, 5234, 5233
4249, 4694, 4695, 4731, 4730, 5198, 5199, 5235, 5234
4250, 4695, 4696, 4732, 4731, 5199, 5200, 5236, 5235
4251, 4696, 4697, 4733, 4732, 5200, 5201, 5237, 5236
4252, 4697, 4698, 4734, 4733, 5201, 5202, 5238, 5237
4253, 4698, 4699, 4735, 4734, 5202, 5203, 5239, 5238
4254, 4699, 4700, 4736, 4735, 5203, 5204, 5240, 5239
4255, 4700, 4701, 4737, 4736, 5204, 5205, 5241, 5240
4256, 4701, 4702, 4738, 4737, 5205, 5206, 5242, 5241
4257, 4702, 4703, 4739, 4738, 5206, 5207, 5243, 5242
4258, 4703, 4704, 4740, 4739, 5207, 5208, 5244, 5243
4259, 4704, 4705, 4741, 4740, 5208, 5209, 5245, 5244
4260, 4705, 4706, 4742, 4741, 5209, 5210, 5246, 5245
4261, 4706, 4707, 4743, 4742, 5210, 5211, 5247, 5246
4262, 4707, 4708, 4744, 4743, 5211, 5212, 5248, 5247
4263, 4708, 4709, 4745, 4744, 5212, 5213, 5249, 5248
4264, 4709, 4710, 4746, 4745, 5213, 5214, 5250, 5249
4265, 4710, 4711, 4747, 4746, 5214, 5215, 5251, 5250
4266, 4711, 4712, 4748, 4747, 5215, 5216, 5252, 5251
4267, 4712, 4713, 4749, 4748, 5216, 5217, 5253, 5252
4268, 4713, 4714, 4750, 4749, 5217, 5218, 5254, 5253
4269, 4714, 4715, 4751, 4750, 5218, 5219, 5255, 5254
4270, 4715, 4716, 4752, 4751, 5219, 5220, 5256, 5255
4271, 4717, 4718, 4754, 4753, 5221, 5222, 5258, 5257
4272, 4718, 4719, 4755, 4754, 5222, 5223, 5259, 5258
4273, 4719, 4720, 4756, 4755, 5223, 5224, 5260, 5259
4274, 4720, 4721, 4757, 4756, 5224, 5225, 5261, 5260
4275, 4721, 4722, 4758, 4757, 5225, 5226, 5262, 5261
4276, 4722, 4723, 4759, 4758, 5226, 5227, 5263, 5262
4277, 4723, 4724, 4760, 4759, 5227, 5228, 5264, 5263
4278, 4724, 4725, 4761, 4760, 5228, 5229, 5265, 5264
4279, 4725, 4726, 4762, 4761, 5229, 5230, 5266, 5265
4280, 4726, 4727, 4763, 4762, 5230, 5231, 5267, 5266
4281, 4727, 4728, 4764, 4763, 5231, 5232, 5268, 5267
4282, 4728, 4729, 4765, 4764, 5232, 5233, 5269, 5268
4283, 4729, 4730, 4766, 4765, 5233, 5234, 5270, 5269
4284, 4730, 4731, 4767, 4766, 5234, 5235, 5271, 5270
4285, 4731, 4732, 4768, 4767, 5235, 5236, 5272, 5271
4286, 4732, 4733, 4769, 4768, 5236, 5237, 5273, 5272
4287, 4733, 4734, 4770, 4769, 5237, 5238, 5274, 5273
4288, 4734, 4735, 4771, 4770, 5238, 5239, 5275, 5274
4289, 4735, 4736, 4772, 4771, 5239, 5240, 5276, 5275
4290, 4736, 4737, 4773, 4772, 5240, 5241, 5277, 5276
4291, 4737, 4738, 4774, 4773, 5241, 5242, 5278, 5277
4292, 4738, 4739, 4775, 4774, 5242, 5243, 5279, 5278
4293, 4739, 4740, 4776, 4775, 5243, 5244, 5280, 5279
4294, 4740, 4741, 4777, 4776, 5244, 5245, 5281, 5280
4295, 4741, 4742, 4778, 4777, 5245, 5246, 5282, 5281
4296, 4742, 4743, 4779, 4778, 5246, 5247, 5283, 5282
4297, 4743, 4744, 4780, 4779, 5247, 5248, 5284, 5283
4298, 4744, 4745, 4781, 4780, 5248, 5249, 5285, 5284
4299, 4745, 4746, 4782, 4781, 5249, 5250, 5286, 5285
4300, 4746, 4747, 4783, 4782, 5250, 5251, 5287, 5286
4301, 4747, 4748, 4784, 4783, 5251, 5252, 5288, 5287
4302, 4748, 4749, 4785, 4784, 5252, 5253, 5289, 5288
4303, 4749, 4750, 4786, 4785, 5253, 5254, 5290, 5289
4304, 4750, 4751, 4787, 4786, 5254, 5255, 5291, 5290
4305, 4751, 4752, 4788, 4787, 5255, 5256, 5292, 5291
4306, 4753, 4754, 4790, 4789, 5257, 5258, 5294, 5293
4307, 4754, 4755, 4791, 4790, 5258, 5259, 5295, 5294
4308, 4755, 4756, 4792, 4791, 5259, 5260, 5296, 5295
4309, 4756, 4757, 4793, 4792, 5260, 5261, 5297, 5296
4310, 4757, 4758, 4794, 4793, 5261, 5262, 5298, 5297
4311, 4758, 4759, 4795, 4794, 5262, 5263, 5299, 5298
4312, 4759, 4760, 4796, 4795, 5263, 5264, 5300, 5299
4313, 4760, 4761, 4797, 4796, 5264, 5265, 5301, 5300
4314, 4761, 4762, 4798, 4797, 5265, 5266, 5302, 5301
4315, 4762, 4763, 4799, 4798, 5266, 5267, 5303, 5302
4316, 4763, 4764, 4800, 4799, 5267, 5268, 5304, 5303
4317, 4764, 4765, 4801, 4800, 5268, 5269, 5305, 5304
4318, 4765, 4766, 4802, 4801, 5269, 5270, 5306, 5305
4319, 4766, 4767, 4803, 4802, 5270, 5271, 5307, 5306
4320, 4767, 4768, 4804, 4803, 5271, 5272, 5308, 5307
4321, 4768, 4769, 4805, 4804, 5272, 5273, 5309, 5308
4322, 4769, 4770, 4806, 4805, 5273, 5274, 5310, 5309
4323, 4770, 4771, 4807, 4806, 5274, 5275, 5311, 5310
4324, 4771, 4772, 4808, 4807, 5275, 5276, 5312, 5311
4325, 4772, 4773, 4809, 4808, 5276, 5277, 5313, 5312
4326, 4773, 4774, 4810, 4809, 5277, 5278, 5314, 5313
4327, 4774, 4775, 4811, 4810, 5278, 5279, 5315, 5314
4328, 4775, 4776, 4812, 4811, 5279, 5280, 5316, 5315
4329, 4776, 4777, 4813, 4812, 5280, 5281, 5317, 5316
4330, 4777, 4778, 4814, 4813, 5281, 5282, 5318, 5317
4331, 4778, 4779, 4815, 4814, 5282, 5283, 5319, 5318
4332, 4779, 4780, 4816, 4815, 5283, 5284, 5320, 5319
4333, 4780, 4781, 4817, 4816, 5284, 5285, 5321, 5320
4334, 4781, 4782, 4818, 4817, 5285, 5286, 5322, 5321
4335, 4782, 4783, 4819, 4818, 5286, 5287, 5323, 5322
4336, 4783, 4784, 4820, 4819, 5287, 5288, 5324, 5323
4337, 4784, 4785, 4821, 4820, 5288, 5289, 5325, 5324
4338, 4785, 4786, 4822, 4821, 5289, 5290, 5326, 5325
4339, 4786, 4787, 4823, 4822, 5290, 5291, 5327, 5326
4340, 4787, 4788, 4824, 4823, 5291, 5292, 5328, 5327
4341, 4789, 4790, 4826, 4825, 5293, 5294, 5330, 5329
4342, 4790, 4791, 4827, 4826, 5294, 5295, 5331, 5330
4343, 4791, 4792, 4828, 4827, 5295, 5296, 5332, 5331
4344, 4792, 4793, 4829, 4828, 5296, 5297, 5333, 5332
4345, 4793, 4794, 4830, 4829, 5297, 5298, 5334, 5333
4346, 4794, 4795, 4831, 4830, 5298, 5299, 5335, 5334
4347, 4795, 4796, 4832, 4831, 5299, 5300, 5336, 5335
4348, 4796, 4797, 4833, 4832, 5300, 5301, 5337, 5336
4349, 4797, 4798, 4834, 4833, 5301, 5302, 5338, 5337
4350, 4798, 4799, 4835, 4834, 5302, 5303, 5339, 5338
4351, 4799, 4800, 4836, 4835, 5303, 5304, 5340, 5339
4352, 4800, 4801, 4837, 4836, 5304, 5305, 5341, 5340
4353, 4801, 4802, 4838, 4837, 5305, 5306, 5342, 5341
4354, 4802, 4803, 4839, 4838, 5306, 5307, 5343, 5342
4355, 4803, 4804, 4840, 4839, 5307, 5308, 5344, 5343
4356, 4804, 4805, 4841, 4840, 5308, 5309, 5345, 5344
4357, 4805, 4806, 4842, 4841, 5309, 5310, 5346, 5345
4358, 4806, 4807, 4843, 4842, 5310, 5311, 5347, 5346
4359, 4807, 4808, 4844, 4843, 5311, 5312, 5348, 5347
4360, 4808, 4809, 4845, 4844, 5312, 5313, 5349, 5348
4361, 4809, 4810, 4846, 4845, 5313, 5314, 5350, 5349
4362, 4810, 4811, 4847, 4846, 5314, 5315, 5351, 5350
4363, 4811, 4812, 4848, 4847, 5315, 5316, 5352, 5351
4364, 4812, 4813, 4849, 4848, 5316, 5317, 5353, 5352
4365, 4813, 4814, 4850, 4849, 5317, 5318, 5354, 5353
4366, 4814, 4815, 4851, 4850, 5318, 5319, 5355, 5354
4367, 4815, 4816, 4852, 4851, 5319, 5320, 5356, 5355
4368, 4816, 4817, 4853, 4852, 5320, 5321, 5357, 5356
4369, 4817, 4818, 4854, 4853, 5321, 5322, 5358, 5357
4370, 4818, 4819, 4855, 4854, 5322, 5323, 5359, 5358
4371, 4819, 4820, 4856, 4855, 5323, 5324, 5360, 5359
4372, 4820, 4821, 4857, 4856, 5324, 5325, 5361, 5360
4373, 4821, 4822, 4858, 4857, 5325, 5326, 5362, 5361
4374, 4822, 4823, 4859, 4858, 5326, 5327, 5363, 5362
4375, 4823, 4824, 4860, 4859, 5327, 5328, 5364, 5363
4376, 4825, 4826, 4862, 4861, 5329, 5330, 5366, 5365
4377, 4826, 4827, 4863, 4862, 5330, 5331, 5367, 5366
4378, 4827, 4828, 4864, 4863, 5331, 5332, 5368, 5367
4379, 4828, 4829, 4865, 4864, 5332, 5333, 5369, 5368
4380, 4829, 4830, 4866, 4865, 5333, 5334, 5370, 5369
4381, 4830, 4831, 4867, 4866, 5334, 5335, 5371, 5370
4382, 4831, 4832, 4868, 4867, 5335, 5336, 5372, 5371
4383, 4832, 4833, 4869, 4868, 5336, 5337, 5373, 5372
4384, 4833, 4834, 4870, 4869, 5337, 5338, 5374, 5373
4385, 4834, 4835, 4871, 4870, 5338, 5339, 5375, 5374
4386, 4835, 4836, 4872, 4871, 5339, 5340, 5376, 5375
4387, 4836, 4837, 4873, 4872, 5340, 5341, 5377, 5376
4388, 4837, 4838, 4874, 4873, 5341, 5342, 5378, 5377
4389, 4838, 4839, 4875, 4874, 5342, 5343, 5379, 5378
4390, 4839, 4840, 4876, 4875, 5343, 5344, 5380, 5379
4391, 4840, 4841, 4877, 4876, 5344, 5345, 5381, 5380
4392, 4841, 4842, 4878, 4877, 5345, 5346, 5382, 5381
4393, 4842, 4843, 4879, 4878, 5346, 5347, 5383, 5382
4394, 4843, 4844, 4880, 4879, 5347, 5348, 5384, 5383
4395, 4844, 4845, 4881, 4880, 5348, 5349, 5385, 5384
4396, 4845, 4846, 4882, 4881, 5349, 5350, 5386, 5385
4397, 4846, 4847, 4883, 4882, 5350, 5351, 5387, 5386
4398, 4847, 4848, 4884, 4883, 5351, 5352, 5388, 5387
4399, 4848, 4849, 4885, 4884, 5352, 5353, 5389, 5388
4400, 4849, 4850, 4886, 4885, 5353, 5354, 5390, 5389
4401, 4850, 4851, 4887, 4886, 5354, 5355, 5391, 5390
4402, 4851, 4852, 4888, 4887, 5355, 5356, 5392, 5391
4403, 4852, 4853, 4889, 4888, 5356, 5357, 5393, 5392
4404, 4853, 4854, 4890, 4889, 5357, 5358, 5394, 5393
4405, 4854, 4855, 4891, 4890, 5358, 5359, 5395, 5394
4406, 4855, 4856, 4892, 4891, 5359, 5360, 5396, 5395
4407, 4856, 4857, 4893, 4892, 5360, 5361, 5397, 5396
4408, 4857, 4858, 4894, 4893, 5361, 5362, 5398, 5397
4409, 4858, 4859, 4895, 4894, 5362, 5363, 5399, 5398
4410, 4859, 4860, 4896, 4895, 5363, 5364, 5400, 5399
4411, 4861, 4862, 4898, 4897, 5365, 5366, 5402, 5401
4412, 4862, 4863, 4899, 4898, 5366, 5367, 5403, 5402
4413, 4863, 4864, 4900, 4899, 5367, 5368, 5404, 5403
4414, 4864, 4865, 4901, 4900, 5368, 5369, 5405, 5404
4415, 4865, 4866, 4902, 4901, 5369, 5370, 5406, 5405
4416, 4866, 4867, 4903, 4902, 5370, 5371, 5407, 5406
4417, 4867, 4868, 4904, 4903, 5371, 5372, 5408, 5407
4418, 4868, 4869, 4905, 4904, 5372, 5373, 5409, 5408
4419, 4869, 4870, 4906, 4905, 5373, 5374, 5410, 5409
4420, 4870, 4871, 4907, 4906, 5374, 5375, 5411, 5410
4421, 4871, 4872, 4908, 4907, 5375, 5376, 5412, 5411
4422, 4872, 4873, 4909, 4908, 5376, 5377, 5413, 5412
4423, 4873, 4874, 4910, 4909, 5377, 5378, 5414, 5413
4424, 4874, 4875, 4911, 4910, 5378, 5379, 5415, 5414
4425, 4875, 4876, 4912, 4911, 5379, 5380, 5416, 5415
4426, 4876, 4877, 4913, 4912, 5380, 5381, 5417, 5416
4427, 4877, 4878, 4914, 4913, 5381, 5382, 5418, 5417
4428, 4878, 4879, 4915, 4914, 5382, 5383, 5419, 5418
4429, 4879, 4880, 4916, 4915, 5383, 5384, 5420, 5419
4430, 4880, 4881, 4917, 4916, 5384, 5385, 5421, 5420
4431, 4881, 4882, 4918, 4917, 5385, 5386, 5422, 5421
4432, 4882, 4883, 4919, 4918, 5386, 5387, 5423, 5422
4433, 4883, 4884, 4920, 4919, 5387, 5388, 5424, 5423
4434, 4884, 4885, 4921, 4920, 5388, 5389, 5425, 5424
4435, 4885, 4886, 4922, 4921, 5389, 5390, 5426, 5425
4436, 4886, 4887, 4923, 4922, 5390, 5391, 5427, 5426
4437, 4887, 4888, 4924, 4923, 5391, 5392, 5428, 5427
4438, 4888, 4889, 4925, 4924, 5392, 5393, 5429, 5428
4439, 4889, 4890, 4926, 4925, 5393, 5394, 5430, 5429
4440, 4890, 4891, 4927, 4926, 5394, 5395, 5431, 5430
4441, 4891, 4892, 4928, 4927, 5395, 5396, 5432, 5431
4442, 4892, 4893, 4929, 4928, 5396, 5397, 5433, 5432
4443, 4893, 4894, 4930, 4929, 5397, 5398, 5434, 5433
4444, 4894, 4895, 4931, 4930, 5398, 5399, 5435, 5434
4445, 4895, 4896, 4932, 4931, 5399, 5400, 5436, 5435
4446, 4897, 4898, 4934, 4933, 5401, 5402, 5438, 5437
4447, 4898, 4899, 4935, 4934, 5402, 5403, 5439, 5438
4448, 4899, 4900, 4936, 4935, 5403, 5404, 5440, 5439
4449, 4900, 4901, 4937, 4936, 5404, 5405, 5441, 5440
4450, 4901, 4902, 4938, 4937, 5405, 5406, 5442, 5441
4451, 4902, 4903, 4939, 4938, 5406, 5407, 5443, 5442
4452, 4903, 4904, 4940, 4939, 5407, 5408, 5444, 5443
4453, 4904, 4905, 4941, 4940, 5408, 5409, 5445, 5444
4454, 4905, 4906, 4942, 4941, 5409, 5410, 5446, 5445
4455, 4906, 4907, 4943, 4942, 5410, 5411, 5447, 5446
4456, 4907, 4908, 4944, 4943, 5411, 5412, 5448, 5447
4457, 4908, 4909, 4945, 4944, 5412, 5413, 5449, 5448
4458, 4909, 4910, 4946, 4945, 5413, 5414, 5450, 5449
4459, 4910, 4911, 4947, 4946, 5414, 5415, 5451, 5450
4460, 4911, 4912, 4948, 4947, 5415, 5416, 5452, 5451
4461, 4912, 4913, 4949, 4948, 5416, 5417, 5453, 5452
4462, 4913, 4914, 4950, 4949, 5417, 5418, 5454, 5453
4463, 4914, 4915, 4951, 4950, 5418, 5419, 5455, 5454
4464, 4915, 4916, 4952, 4951, 5419, 5420, 5456, 5455
4465, 4916, 4917, 4953, 4952, 5420, 5421, 5457, 5456
4466, 4917, 4918, 4954, 4953, 5421, 5422, 5458, 5457
4467, 4918, 4919, 4955, 4954, 5422, 5423, 5459, 5458
4468, 4919, 4920, 4956, 4955, 5423, 5424, 5460, 5459
4469, 4920, 4921, 4957, 4956, 5424, 5425, 5461, 5460
4470, 4921, 4922, 4958, 4957, 5425, 5426, 5462, 5461
4471, 4922, 4923, 4959, 4958, 5426, 5427, 5463, 5462
4472, 4923, 4924, 4960, 4959, 5427, 5428, 5464, 5463
4473, 4924, 4925, 4961, 4960, 5428, 5429, 5465, 5464
4474, 4925, 4926, 4962, 4961, 5429, 5430, 5466, 5465
4475, 4926, 4927, 4963, 4962, 5430, 5431, 5467, 5466
4476, 4927, 4928, 4964, 4963, 5431, 5432, 5468, 5467
4477, 4928, 4929, 4965, 4964, 5432, 5433, 5469, 5468
4478, 4929, 4930, 4966, 4965, 5433, 5434, 5470, 5469
4479, 4930, 4931, 4967, 4966, 5434, 5435, 5471, 5470
4480, 4931, 4932, 4968, 4967, 5435, 5436, 5472, 5471
4481, 4933, 4934, 4970, 4969, 5437, 5438, 5474, 5473
4482, 4934, 4935, 4971, 4970, 5438, 5439, 5475, 5474
4483, 4935, 4936, 4972, 4971, 5439, 5440, 5476, 5475
4484, 4936, 4937, 4973, 4972, 5440, 5441, 5477, 5476
4485, 4937, 4938, 4974, 4973, 5441, 5442, 5478, 5477
4486, 4938, 4939, 4975, 4974, 5442, 5443, 5479, 5478
4487, 4939, 4940, 4976, 4975, 5443, 5444, 5480, 5479
4488, 4940, 4941, 4977, 4976, 5444, 5445, 5481, 5480
4489, 4941, 4942, 4978, 4977, 5445, 5446, 5482, 5481
4490, 4942, 4943, 4979, 4978, 5446, 5447, 5483, 5482
4491, 4943, 4944, 4980, 4979, 5447, 5448, 5484, 5483
4492, 4944, 4945, 4981, 4980, 5448, 5449, 5485, 5484
4493, 4945, 4946, 4982, 4981, 5449, 5450, 5486, 5485
4494, 4946, 4947, 4983, 4982, 5450, 5451, 5487, 5486
4495, 4947, 4948, 4984, 4983, 5451, 5452, 5488, 5487
4496, 4948, 4949, 4985, 4984, 5452, 5453, 5489, 5488
4497, 4949, 4950, 4986, 4985, 5453, 5454, 5490, 5489
4498, 4950, 4951, 4987, 4986, 5454, 5455, 5491, 5490
4499, 4951, 4952, 4988, 4987, 5455, 5456, 5492, 5491
4500, 4952, 4953, 4989, 4988, 5456, 5457, 5493, 5492
4501, 4953, 4954, 4990, 4989, 5457, 5458, 5494, 5493
4502, 4954, 4955, 4991, 4990, 5458, 5459, 5495, 5494
4503, 4955, 4956, 4992, 4991, 5459, 5460, 5496, 5495
4504, 4956, 4957, 4993, 4992, 5460, 5461, 5497, 5496
4505, 4957, 4958, 4994, 4993, 5461, 5462, 5498, 5497
4506, 4958, 4959, 4995, 4994, 5462, 5463, 5499, 5498
4507, 4959, 4960, 4996, 4995, 5463, 5464, 5500, 5499
4508, 4960, 4961, 4997, 4996, 5464, 5465, 5501, 5500
4509, 4961, 4962, 4998, 4997, 5465, 5466, 5502, 5501
4510, 4962, 4963, 4999, 4998, 5466, 5467, 5503, 5502
4511, 4963, 4964, 5000, 4999, 5467, 5468, 5504, 5503
4512, 4964, 4965, 5001, 5000, 5468, 5469, 5505, 5504
4513, 4965, 4966, 5002, 5001, 5469, 5470, 5506, 5505
4514, 4966, 4967, 5003, 5002, 5470, 5471, 5507, 5506
4515, 4967, 4968, 5004, 5003, 5471, 5472, 5508, 5507
4516, 4969, 4970, 5006, 5005, 5473, 5474, 5510, 5509
4517, 4970, 4971, 5007, 5006, 5474, 5475, 5511, 5510
4518, 4971, 4972, 5008, 5007, 5475, 5476, 5512, 5511
4519, 4972, 4973, 5009, 5008, 5476, 5477, 5513, 5512
4520, 4973, 4974, 5010, 5009, 5477, 5478, 5514, 5513
4521, 4974, 4975, 5011, 5010, 5478, 5479, 5515, 5514
4522, 4975, 4976, 5012, 5011, 5479, 5480, 5516, 5515
4523, 4976, 4977, 5013, 5012, 5480, 5481, 5517, 5516
4524, 4977, 4978, 5014, 5013, 5481, 5482, 5518, 5517
4525, 4978, 4979, 5015, 5014, 5482, 5483, 5519, 5518
4526, 4979, 4980, 5016, 5015, 5483, 5484, 5520, 5519
4527, 4980, 4981, 5017, 5016, 5484, 5485, 5521, 5520
4528, 4981, 4982, 5018, 5017, 5485, 5486, 5522, 5521
4529, 4982, 4983, 5019, 5018, 5486, 5487, 5523, 5522
4530, 4983, 4984, 5020, 5019, 5487, 5488, 5524, 5523
4531, 4984, 4985, 5021, 5020, 5488, 5489, 5525, 5524
4532, 4985, 4986, 5022, 5021, 5489, 5490, 5526, 5525
4533, 4986, 4987, 5023, 5022, 5490, 5491, 5527, 5526
4534, 4987, 4988, 5024, 5023, 5491, 5492, 5528, 5527
4535, 4988, 4989, 5025, 5024, 5492, 5493, 5529, 5528
4536, 4989, 4990, 5026, 5025, 5493, 5494, 5530, 5529
4537, 4990, 4991, 5027, 5026, 5494, 5495, 5531, 5530
4538, 4991, 4992, 5028, 5027, 5495, 5496, 5532, 5531
4539, 4992, 4993, 5029, 5028, 5496, 5497, 5533, 5532
4540, 4993, 4994, 5030, 5029, 5497, 5498, 5534, 5533
4541, 4994, 4995, 5031, 5030, 5498, 5499, 5535, 5534
4542, 4995, 4996, 5032, 5031, 5499, 5500, 5536, 5535
4543, 4996, 4997, 5033, 5032, 5500, 5501, 5537, 5536
4544, 4997, 4998, 5034, 5033, 5501, 5502, 5538, 5537
4545, 4998, 4999, 5035, 5034, 5502, 5503, 5539, 5538
4546, 4999, 5000, 5036, 5035, 5503, 5504, 5540, 5539
4547, 5000, 5001, 5037, 5036, 5504, 5505, 5541, 5540
4548, 5001, 5002, 5038, 5037, 5505, 5506, 5542, 5541
4549, 5002, 5003, 5039, 5038, 5506, 5507, 5543, 5542
4550, 5003, 5004, 5040, 5039, 5507, 5508, 5544, 5543
4551, 5041, 5042, 5078, 5077, 5545, 5546, 5582, 5581
4552, 5042, 5043, 5079, 5078, 5546, 5547, 5583, 5582
4553, 5043, 5044, 5080, 5079, 5547, 5548, 5584, 5583
4554, 5044, 5045, 5081, 5080, 5548, 5549, 5585, 5584
4555, 5045, 5046, 5082, 5081, 5549, 5550, 5586, 5585
4556, 5046, 5047, 5083, 5082, 5550, 5551, 5587, 5586
4557, 5047, 5048, 5084, 5083, 5551, 5552, 5588, 5587
4558, 5048, 5049, 5085, 5084, 5552, 5553, 5589, 5588
4559, 5049, 5050, 5086, 5085, 5553, 5554, 5590, 5589
4560, 5050, 5051, 5087, 5086, 5554, 5555, 5591, 5590
4561, 5051, 5052, 5088, 5087, 5555, 5556, 5592, 5591
4562, 5052, 5053, 5089, 5088, 5556, 5557, 5593, 5592
4563, 5053, 5054, 5090, 5089, 5557, 5558, 5594, 5593
4564, 5054, 5055, 5091, 5090, 5558, 5559, 5595, 5594
4565, 5055, 5056, 5092, 5091, 5559, 5560, 5596, 5595
4566, 5056, 5057, 5093, 5092, 5560, 5561, 5597, 5596
4567, 5057, 5058, 5094, 5093, 5561, 5562, 5598, 5597
4568, 5058, 5059, 5095, 5094, 5562, 5563, 5599, 5598
4569, 5059, 5060, 5096, 5095, 5563, 5564, 5600, 5599
4570, 5060, 5061, 5097, 5096, 5564, 5565, 5601, 5600
4571, 5061, 5062, 5098, 5097, 5565, 5566, 5602, 5601
4572, 5062, 5063, 5099, 5098, 5566, 5567, 5603, 5602
4573, 5063, 5064, 5100, 5099, 5567, 5568, 5604, 5603
4574, 5064, 5065, 5101, 5100, 5568, 5569, 5605, 5604
4575, 5065, 5066, 5102, 5101, 5569, 5570, 5606, 5605
4576, 5066, 5067, 5103, 5102, 5570, 5571, 5607, 5606
4577, 5067, 5068, 5104, 5103, 5571, 5572, 5608, 5607
4578, 5068, 5069, 5105, 5104, 5572, 5573, 5609, 5608
4579, 5069, 5070, 5106, 5105, 5573, 5574, 5610, 5609
4580, 5070, 5071, 5107, 5106, 5574, 5575, 5611, 5610
4581, 5071, 5072, 5108, 5107, 5575, 5576, 5612, 5611
4582, 5072, 5073, 5109, 5108, 5576, 5577, 5613, 5612
4583, 5073, 5074, 5110, 5109, 5577, 5578, 5614, 5613
4584, 5074, 5075, 5111, 5110, 5578, 5579, 5615, 5614
4585, 5075, 5076, 5112, 5111, 5579, 5580, 5616, 5615
4586, 5077, 5078, 5114, 5113, 5581, 5582, 5618, 5617
4587, 5078, 5079, 5115, 5114, 5582, 5583, 5619, 5618
4588, 5079, 5080, 5116, 5115, 5583, 5584, 5620, 5619
4589, 5080, 5081, 5117, 5116, 5584, 5585, 5621, 5620
4590, 5081, 5082, 5118, 5117, 5585, 5586, 5622, 5621
4591, 5082, 5083, 5119, 5118, 5586, 5587, 5623, 5622
4592, 5083, 5084, 5120, 5119, 5587, 5588, 5624, 5623
4593, 5084, 5085, 5121, 5120, 5588, 5589, 5625, 5624
4594, 5085, 5086, 5122, 5121, 5589, 5590, 5626, 5625
4595, 5086, 5087, 5123, 5122, 5590, 5591, 5627, 5626
4596, 5087, 5088, 5124, 5123, 5591, 5592, 5628, 5627
4597, 5088, 5089, 5125, 5124, 5592, 5593, 5629, 5628
4598, 5089, 5090, 5126, 5125, 5593, 5594, 5630, 5629
4599, 5090, 5091, 5127, 5126, 5594, 5595, 5631, 5630
4600, 5091, 5092, 5128, 5127, 5595, 5596, 5632, 5631
4601, 5092, 5093, 5129, 5128, 5596, 5597, 5633, 5632
4602, 5093, 5094, 5130, 5129, 5597, 5598, 5634, 5633
4603, 5094, 5095, 5131, 5130, 5598, 5599, 5635, 5634
4604, 5095, 5096, 5132, 5131, 5599, 5600, 5636, 5635
4605, 5096, 5097, 5133, 5132, 5600, 5601, 5637, 5636
4606, 5097, 5098, 5134, 5133, 5601, 5602, 5638, 5637
4607, 5098, 5099, 5135, 5134, 5602, 5603, 5639, 5638
4608, 5099, 5100, 5136, 5135, 5603, 5604, 5640, 5639
4609, 5100, 5101, 5137, 5136, 5604, 5605, 5641, 5640
4610, 5101, 5102, 5138, 5137, 5605, 5606, 5642, 5641
4611, 5102, 5103, 5139, 5138, 5606, 5607, 5643, 5642
4612, 5103, 5104, 5140, 5139, 5607, 5608, 5644, 5643
4613, 5104, 5105, 5141, 5140, 5608, 5609, 5645, 5644
4614, 5105, 5106, 5142, 5141, 5609, 5610, 5646, 5645
4615, 5106, 5107, 5143, 5142, 5610, 5611, 5647, 5646
4616, 5107, 5108, 5144, 5143, 5611, 5612, 5648, 5647
4617, 5108, 5109, 5145, 5144, 5612, 5613, 5649, 5648
4618, 5109, 5110, 5146, 5145, 5613, 5614, 5650, 5649
4619, 5110, 5111, 5147, 5146, 5614, 5615, 5651, 5650
4620, 5111, 5112, 5148, 5147, 5615, 5616, 5652, 5651
4621, 5113, 5114, 5150, 5149, 5617, 5618, 5654, 5653
4622, 5114, 5115, 5151, 5150, 5618, 5619, 5655, 5654
4623, 5115, 5116, 5152, 5151, 5619, 5620, 5656, 5655
4624, 5116, 5117, 5153, 5152, 5620, 5621, 5657, 5656
4625, 5117, 5118, 5154, 5153, 5621, 5622, 5658, 5657
4626, 5118, 5119, 5155, 5154, 5622, 5623, 5659, 5658
4627, 5119, 5120, 5156, 5155, 5623, 5624, 5660, 5659
4628, 5120, 5121, 5157, 5156, 5624, 5625, 5661, 5660
4629, 5121, 5122, 5158, 5157, 5625, 5626, 5662, 5661
4630, 5122, 5123, 5159, 5158, 5626, 5627, 5663, 5662
4631, 5123, 5124, 5160, 5159, 5627, 5628, 5664, 5663
4632, 5124, 5125, 5161, 5160, 5628, 5629, 5665, 5664
4633, 5125, 5126, 5162, 5161, 5629, 5630, 5666, 5665
4634, 5126, 5127, 5163, 5162, 5630, 5631, 5667, 5666
4635, 5127, 5128, 5164, 5163, 5631, 5632, 5668, 5667
4636, 5128, 5129, 5165, 5164, 5632, 5633, 5669, 5668
4637, 5129, 5130, 5166, 5165, 5633, 5634, 5670, 5669
4638, 5130, 5131, 5167, 5166, 5634, 5635, 5671, 5670
4639, 5131, 5132, 5168, 5167, 5635, 5636, 5672, 5671
4640, 5132, 5133, 5169, 5168, 5636, 5637, 5673, 5672
4641, 5133, 5134, 5170, 5169, 5637, 5638, 5674, 5673
4642, 5134, 5135, 5171, 5170, 5638, 5639, 5675, 5674
4643, 5135, 5136, 5172, 5171, 5639, 5640, 5676, 5675
4644, 5136, 5137, 5173, 5172, 5640, 5641, 5677, 5676
4645, 5137, 5138, 5174, 5173, 5641, 5642, 5678, 5677
4646, 5138, 5139, 5175, 5174, 5642, 5643, 5679, 5678
4647, 5139, 5140, 5176, 5175, 5643, 5644, 5680, 5679
4648, 5140, 5141, 5177, 5176, 5644, 5645, 5681, 5680
4649, 5141, 5142, 5178, 5177, 5645, 5646, 5682, 5681
4650, 5142, 5143, 5179, 5178, 5646, 5647, 5683, 5682
4651, 5143, 5144, 5180, 5179, 5647, 5648, 5684, 5683
4652, 5144, 5145, 5181, 5180, 5648, 5649, 5685, 5684
4653, 5145, 5146, 5182, 5181, 5649, 5650, 5686, 5685
4654, 5146, 5147, 5183, 5182, 5650, 5651, 5687, 5686
4655, 5147, 5148, 5184, 5183, 5651, 5652, 5688, 5687
4656, 5149, 5150, 5186, 5185, 5653, 5654, 5690, 5689
4657, 5150, 5151, 5187, 5186, 5654, 5655, 5691, 5690
4658, 5151, 5152, 5188, 5187, 5655, 5656, 5692, 5691
4659, 5152, 5153, 5189, 5188, 5656, 5657, 5693, 5692
4660, 5153, 5154, 5190, 5189, 5657, 5658, 5694, 5693
4661, 5154, 5155, 5191, 5190, 5658, 5659, 5695, 5694
4662, 5155, 5156, 5192, 5191, 5659, 5660, 5696, 5695
4663, 5156, 5157, 5193, 5192, 5660, 5661, 5697, 5696
4664, 5157, 5158, 5194, 5193, 5661, 5662, 5698, 5697
4665, 5158, 5159, 5195, 5194, 5662, 5663, 5699, 5698
4666, 5159, 5160, 5196, 5195, 5663, 5664, 5700, 5699
4667, 5160, 5161, 5197, 5196, 5664, 5665, 5701, 5700
4668, 5161, 5162, 5198, 5197, 5665, 5666, 5702, 5701
4669, 5162, 5163, 5199, 5198, 5666, 5667, 5703, 5702
4670, 5163, 5164, 5200, 5199, 5667, 5668, 5704, 5703
4671, 5164, 5165, 5201, 5200, 5668, 5669, 5705, 5704
4672, 5165, 5166, 5202, 5201, 5669, 5670, 5706, 5705
4673, 5166, 5167, 5203, 5202, 5670, 5671, 5707, 5706
4674, 5167, 5168, 5204, 5203, 5671, 5672, 5708, 5707
4675, 5168, 5169, 5205, 5204, 5672, 5673, 5709, 5708
4676, 5169, 5170, 5206, 5205, 5673, 5674, 5710, 5709
4677, 5170, 5171, 5207, 5206, 5674, 5675, 5711, 5710
4678, 5171, 5172, 5208, 5207, 5675, 5676, 5712, 5711
4679, 5172, 5173, 5209, 5208, 5676, 5677, 5713, 5712
4680, 5173, 5174, 5210, 5209, 5677, 5678, 5714, 5713
4681, 5174, 5175, 5211, 5210, 5678, 5679, 5715, 5714
4682, 5175, 5176, 5212, 5211, 5679, 5680, 5716, 5715
4683, 5176, 5177, 5213, 5212, 5680, 5681, 5717, 5716
4684, 5177, 5178, 5214, 5213, 5681, 5682, 5718, 5717
4685, 5178, 5179, 5215, 5214, 5682, 5683, 5719, 5718
4686, 5179, 5180, 5216, 5215, 5683, 5684, 5720, 5719
4687, 5180, 5181, 5217, 5216, 5684, 5685, 5721, 5720
4688, 5181, 5182, 5218, 5217, 5685, 5686, 5722, 5721
4689, 5182, 5183, 5219, 5218, 5686, 5687, 5723, 5722
4690, 5183, 5184, 5220, 5219, 5687, 5688, 5724, 5723
4691, 5185, 5186, 5222, 5221, 5689, 5690, 5726, 5725
4692, 5186, 5187, 5223, 5222, 5690, 5691, 5727, 5726
4693, 5187, 5188, 5224, 5223, 5691, 5692, 5728, 5727
4694, 5188, 5189, 5225, 5224, 5692, 5693, 5729, 5728
4695, 5189, 5190, 5226, 5225, 5693, 5694, 5730, 5729
4696, 5190, 5191, 5227, 5226, 5694, 5695, 5731, 5730
4697, 5191, 5192, 5228, 5227, 5695, 5696, 5732, 5731
4698, 5192, 5193, 5229, 5228, 5696, 5697, 5733, 5732
4699, 5193, 5194, 5230, 5229, 5697, 5698, 5734, 5733
4700, 5194, 5195, 5231, 5230, 5698, 5699, 5735, 5734
4701, 5195, 5196, 5232, 5231, 5699, 5700, 5736, 5735
4702, 5196, 5197, 5233, 5232, 5700, 5701, 5737, 5736
4703, 5197, 5198, 5234, 5233, 5701, 5702, 5738, 5737
4704, 5198, 5199, 5235, 5234, 5702, 5703, 5739, 5738
4705, 5199, 5200, 5236, 5235, 5703, 5704, 5740, 5739
4706, 5200, 5201, 5237, 5236, 5704, 5705, 5741, 5740
4707, 5201, 5202, 5238, 5237, 5705, 5706, 5742, 5741
4708, 5202, 5203, 5239, 5238, 5706, 5707, 5743, 5742
4709, 5203, 5204, 5240, 5239, 5707, 5708, 5744, 5743
4710, 5204, 5205, 5241, 5240, 5708, 5709, 5745, 5744
4711, 5205, 5206, 5242, 5241, 5709, 5710, 5746, 5745
4712, 5206, 5207, 5243, 5242, 5710, 5711, 5747, 5746
4713, 5207, 5208, 5244, 5243, 5711, 5712, 5748, 5747
4714, 5208, 5209, 5245, 5244, 5712, 5713, 5749, 5748
4715, 5209, 5210, 5246, 5245, 5713, 5714, 5750, 5749
4716, 5210, 5211, 5247, 5246, 5714, 5715, 5751, 5750
4717, 5211, 5212, 5248, 5247, 5715, 5716, 5752, 5751
4718, 5212, 5213, 5249, 5248, 5716, 5717, 5753, 5752
4719, 5213, 5214, 5250, 5249, 5717, 5718, 5754, 5753
4720, 5214, 5215, 5251, 5250, 5718, 5719, 5755, 5754
4721, 5215, 5216, 5252, 5251, 5719, 5720, 5756, 5755
4722, 5216, 5217, 5253, 5252, 5720, 5721, 5757, 5756
4723, 5217, 5218, 5254, 5253, 5721, 5722, 5758, 5757
4724, 5218, 5219, 5255, 5254, 5722, 5723, 5759, 5758
4725, 5219, 5220, 5256, 5255, 5723, 5724, 5760, 5759
4726, 5221, 5222, 5258, 5257, 5725, 5726, 5762, 5761
4727, 5222, 5223, 5259, 5258, 5726, 5727, 5763, 5762
4728, 5223, 5224, 5260, 5259, 5727, 5728, 5764, 5763
4729, 5224, 5225, 5261, 5260, 5728, 5729, 5765, 5764
4730, 5225, 5226, 5262, 5261, 5729, 5730, 5766, 5765
4731, 5226, 5227, 5263, 5262, 5730, 5731, 5767, 5766
4732, 5227, 5228, 5264, 5263, 5731, 5732, 5768, 5767
4733, 5228, 5229, 5265, 5264, 5732, 5733, 5769, 5768
4734, 5229, 5230, 5266, 5265, 5733, 5734, 5770, 5769
4735, 5230, 5231, 5267, 5266, 5734, 5735, 5771, 5770
4736, 5231, 5232, 5268, 5267, 5735, 5736, 5772, 5771
4737, 5232, 5233, 5269, 5268, 5736, 5737, 5773, 5772
4738, 5233, 5234, 5270, 5269, 5737, 5738, 5774, 5773
4739, 5234, 5235, 5271, 5270, 5738, 5739, 5775, 5774
4740, 5235, 5236, 5272, 5271, 5739, 5740, 5776, 5775
4741, 5236, 5237, 5273, 5272, 5740, 5741, 5777, 5776
4742, 5237, 5238, 5274, 5273, 5741, 5742, 5778, 5777
4743, 5238, 5239, 5275, 5274, 5742, 5743, 5779, 5778
4744, 5239, 5240, 5276, 5275, 5743, 5744, 5780, 5779
4745, 5240, 5241, 5277, 5276, 5744, 5745, 5781, 5780
4746, 5241, 5242, 5278, 5277, 5745, 5746, 5782, 5781
4747, 5242, 5243, 5279, 5278, 5746, 5747, 5783, 5782
4748, 5243, 5244, 5280, 5279, 5747, 5748, 5784, 5783
4749, 5244, 5245, 5281, 5280, 5748, 5749, 5785, 5784
4750, 5245, 5246, 5282, 5281, 5749, 5750, 5786, 5785
4751, 5246, 5247, 5283, 5282, 5750, 5751, 5787, 5786
4752, 5247, 5248, 5284, 5283, 5751, 5752, 5788, 5787
4753, 5248, 5249, 5285, 5284, 5752, 5753, 5789, 5788
4754, 5249, 5250, 5286, 5285, 5753, 5754, 5790, 5789
4755, 5250, 5251, 5287, 5286, 5754, 5755, 5791, 5790
4756, 5251, 5252, 5288, 5287, 5755, 5756, 5792, 5791
4757, 5252, 5253, 5289, 5288, 5756, 5757, 5793, 5792
4758, 5253, 5254, 5290, 5289, 5757, 5758, 5794, 5793
4759, 5254, 5255, 5291, 5290, 5758, 5759, 5795, 5794
4760, 5255, 5256, 5292, 5291, 5759, 5760, 5796, 5795
4761, 5257, 5258, 5294, 5293, 5761, 5762, 5798, 5797
4762, 5258, 5259, 5295, 5294, 5762, 5763, 5799, 5798
4763, 5259, 5260, 5296, 5295, 5763, 5764, 5800, 5799
4764, 5260, 5261, 5297, 5296, 5764, 5765, 5801, 5800
4765, 5261, 5262, 5298, 5297, 5765, 5766, 5802, 5801
4766, 5262, 5263, 5299, 5298, 5766, 5767, 5803, 5802
4767, 5263, 5264, 5300, 5299, 5767, 5768, 5804, 5803
4768, 5264, 5265, 5301, 5300, 5768, 5769, 5805, 5804
4769, 5265, 5266, 5302, 5301, 5769, 5770, 5806, 5805
4770, 5266, 5267, 5303, 5302, 5770, 5771, 5807, 5806
4771, 5267, 5268, 5304, 5303, 5771, 5772, 5808, 5807
4772, 5268, 5269, 5305, 5304, 5772, 5773, 5809, 5808
4773, 5269, 5270, 5306, 5305, 5773, 5774, 5810, 5809
4774, 5270, 5271, 5307, 5306, 5774, 5775, 5811, 5810
4775, 5271, 5272, 5308, 5307, 5775, 5776, 5812, 5811
4776, 5272, 5273, 5309, 5308, 5776, 5777, 5813, 5812
4777, 5273, 5274, 5310, 5309, 5777, 5778, 5814, 5813
4778, 5274, 5275, 5311, 5310, 5778, 5779, 5815, 5814
4779, 5275, 5276, 5312, 5311, 5779, 5780, 5816, 5815
4780, 5276, 5277, 5313, 5312, 5780, 5781, 5817, 5816
4781, 5277, 5278, 5314, 5313, 5781, 5782, 5818, 5817
4782, 5278, 5279, 5315, 5314, 5782, 5783, 5819, 5818
4783, 5279, 5280, 5316, 5315, 5783, 5784, 5820, 5819
4784, 5280, 5281, 5317, 5316, 5784, 5785, 5821, 5820
4785, 5281, 5282, 5318, 5317, 5785, 5786, 5822, 5821
4786, 5282, 5283, 5319, 5318, 5786, 5787, 5823, 5822
4787, 5283, 5284, 5320, 5319, 5787, 5788, 5824, 5823
4788, 5284, 5285, 5321, 5320, 5788, 5789, 5825, 5824
4789, 5285, 5286, 5322, 5321, 5789, 5790, 5826, 5825
4790, 5286, 5287, 5323, 5322, 5790, 5791, 5827, 5826
4791, 5287, 5288, 5324, 5323, 5791, 5792, 5828, 5827
4792, 5288, 5289, 5325, 5324, 5792, 5793, 5829, 5828
4793, 5289, 5290, 5326, 5325, 5793, 5794, 5830, 5829
4794, 5290, 5291, 5327, 5326, 5794, 5795, 5831, 5830
4795, 5291, 5292, 5328, 5327, 5795, 5796, 5832, 5831
4796, 5293, 5294, 5330, 5329, 5797, 5798, 5834, 5833
4797, 5294, 5295, 5331, 5330, 5798, 5799, 5835, 5834
4798, 5295, 5296, 5332, 5331, 5799, 5800, 5836, 5835
4799, 5296, 5297, 5333, 5332, 5800, 5801, 5837, 5836
4800, 5297, 5298, 5334, 5333, 5801, 5802, 5838, 5837
4801, 5298, 5299, 5335, 5334, 5802, 5803, 5839, 5838
4802, 5299, 5300, 5336, 5335, 5803, 5804, 5840, 5839
4803, 5300, 5301, 5337, 5336, 5804, 5805, 5841, 5840
4804, 5301, 5302, 5338, 5337, 5805, 5806, 5842, 5841
4805, 5302, 5303, 5339, 5338, 5806, 5807, 5843, 5842
4806, 5303, 5304, 5340, 5339, 5807, 5808, 5844, 5843
4807, 5304, 5305, 5341, 5340, 5808, 5809, 5845, 5844
4808, 5305, 5306, 5342, 5341, 5809, 5810, 5846, 5845
4809, 5306, 5307, 5343, 5342, 5810, 5811, 5847, 5846
4810, 5307, 5308, 5344, 5343, 5811, 5812, 5848, 5847
4811, 5308, 5309, 5345, 5344, 5812, 5813, 5849, 5848
4812, 5309, 5310, 5346, 5345, 5813, 5814, 5850, 5849
4813, 5310, 5311, 5347, 5346, 5814, 5815, 5851, 5850
4814, 5311, 5312, 5348, 5347, 5815, 5816, 5852, 5851
4815, 5312, 5313, 5349, 5348, 5816, 5817, 5853, 5852
4816, 5313, 5314, 5350, 5349, 5817, 5818, 5854, 5853
4817, 5314, 5315, 5351, 5350, 5818, 5819, 5855, 5854
4818, 5315, 5316, 5352, 5351, 5819, 5820, 5856, 5855
4819, 5316, 5317, 5353, 5352, 5820, 5821, 5857, 5856
4820, 5317, 5318, 5354, 5353, 5821, 5822, 5858, 5857
4821, 5318, 5319, 5355, 5354, 5822, 5823, 5859, 5858
4822, 5319, 5320, 5356, 5355, 5823, 5824, 5860, 5859
4823, 5320, 5321, 5357, 5356, 5824, 5825, 5861, 5860
4824, 5321, 5322, 5358, 5357, 5825, 5826, 5862, 5861
4825, 5322, 5323, 5359, 5358, 5826, 5827, 5863, 5862
4826, 5323, 5324, 5360, 5359, 5827, 5828, 5864, 5863
4827, 5324, 5325, 5361, 5360, 5828, 5829, 5865, 5864
4828, 5325, 5326, 5362, 5361, 5829, 5830, 5866, 5865
4829, 5326, 5327, 5363, 5362, 5830, 5831, 5867, 5866
4830, 5327, 5328, 5364, 5363, 5831, 5832, 5868, 5867
4831, 5329, 5330, 5366, 5365, 5833, 5834, 5870, 5869
4832, 5330, 5331, 5367, 5366, 5834, 5835, 5871, 5870
4833, 5331, 5332, 5368, 5367, 5835, 5836, 5872, 5871
4834, 5332, 5333, 5369, 5368, 5836, 5837, 5873, 5872
4835, 5333, 5334, 5370, 5369, 5837, 5838, 5874, 5873
4836, 5334, 5335, 5371, 5370, 5838, 5839, 5875, 5874
4837, 5335, 5336, 5372, 5371, 5839, 5840, 5876, 5875
4838, 5336, 5337, 5373, 5372, 5840, 5841, 5877, 5876
4839, 5337, 5338, 5374, 5373, 5841, 5842, 5878, 5877
4840, 5338, 5339, 5375, 5374, 5842, 5843, 5879, 5878
4841, 5339, 5340, 5376, 5375, 5843, 5844, 5880, 5879
4842, 5340, 5341, 5377, 5376, 5844, 5845, 5881, 5880
4843, 5341, 5342, 5378, 5377, 5845, 5846, 5882, 5881
4844, 5342, 5343, 5379, 5378, 5846, 5847, 5883, 5882
4845, 5343, 5344, 5380, 5379, 5847, 5848, 5884, 5883
4846, 5344, 5345, 5381, 5380, 5848, 5849, 5885, 5884
4847, 5345, 5346, 5382, 5381, 5849, 5850, 5886, 5885
4848, 5346, 5347, 5383, 5382, 5850, 5851, 5887, 5886
4849, 5347, 5348, 5384, 5383, 5851, 5852, 5888, 5887
4850, 5348, 5349, 5385, 5384, 5852, 5853, 5889, 5888
4851, 5349, 5350, 5386, 5385, 5853, 5854, 5890, 5889
4852, 5350, 5351, 5387, 5386, 5854, 5855, 5891, 5890
4853, 5351, 5352, 5388, 5387, 5855, 5856, 5892, 5891
4854, 5352, 5353, 5389, 5388, 5856, 5857, 5893, 5892
4855, 5353, 5354, 5390, 5389, 5857, 5858, 5894, 5893
4856, 5354, 5355, 5391, 5390, 5858, 5859, 5895, 5894
4857, 5355, 5356, 5392, 5391, 5859, 5860, 5896, 5895
4858, 5356, 5357, 5393, 5392, 5860, 5861, 5897, 5896
4859, 5357, 5358, 5394, 5393, 5861, 5862, 5898, 5897
4860, 5358, 5359, 5395, 5394, 5862, 5863, 5899, 5898
4861, 5359, 5360, 5396, 5395, 5863, 5864, 5900, 5899
4862, 5360, 5361, 5397, 5396, 5864, 5865, 5901, 5900
4863, 5361, 5362, 5398, 5397, 5865, 5866, 5902, 5901
4864, 5362, 5363, 5399, 5398, 5866, 5867, 5903, 5902
4865, 5363, 5364, 5400, 5399, 5867, 5868, 5904, 5903
4866, 5365, 5366, 5402, 5401, 5869, 5870, 5906, 5905
4867, 5366, 5367, 5403, 5402, 5870, 5871, 5907, 5906
4868, 5367, 5368, 5404, 5403, 5871, 5872, 5908, 5907
4869, 5368, 5369, 5405, 5404, 5872, 5873, 5909, 5908
4870, 5369, 5370, 5406, 5405, 5873, 5874, 5910, 5909
4871, 5370, 5371, 5407, 5406, 5874, 5875, 5911, 5910
4872, 5371, 5372, 5408, 5407, 5875, 5876, 5912, 5911
4873, 5372, 5373, 5409, 5408, 5876, 5877, 5913, 5912
4874, 5373, 5374, 5410, 5409, 5877, 5878, 5914, 5913
4875, 5374, 5375, 5411, 5410, 5878, 5879, 5915, 5914
4876, 5375, 5376, 5412, 5411, 5879, 5880, 5916, 5915
4877, 5376, 5377, 5413, 5412, 5880, 5881, 5917, 5916
4878, 5377, 5378, 5414, 5413, 5881, 5882, 5918, 5917
4879, 5378, 5379, 5415, 5414, 5882, 5883, 5919, 5918
4880, 5379, 5380, 5416, 5415, 5883, 5884, 5920, 5919
4881, 5380, 5381, 5417, 5416, 5884, 5885, 5921, 5920
4882, 5381, 5382, 5418, 5417, 5885, 5886, 5922, 5921
4883, 5382, 5383, 5419, 5418, 5886, 5887, 5923, 5922
4884, 5383, 5384, 5420, 5419, 5887, 5888, 5924, 5923
4885, 5384, 5385, 5421, 5420, 5888, 5889, 5925, 5924
4886, 5385, 5386, 5422, 5421, 5889, 5890, 5926, 5925
4887, 5386, 5387, 5423, 5422, 5890, 5891, 5927, 5926
4888, 5387, 5388, 5424, 5423, 5891, 5892, 5928, 5927
4889, 5388, 5389, 5425, 5424, 5892, 5893, 5929, 5928
4890, 5389, 5390, 5426, 5425, 5893, 5894, 5930, 5929
4891, 5390, 5391, 5427, 5426, 5894, 5895, 5931, 5930
4892, 5391, 5392, 5428, 5427, 5895, 5896, 5932, 5931
4893, 5392, 5393, 5429, 5428, 5896, 5897, 5933, 5932
4894, 5393, 5394, 5430, 5429, 5897, 5898, 5934, 5933
4895, 5394, 5395, 5431, 5430, 5898, 5899, 5935, 5934
4896, 5395, 5396, 5432, 5431, 5899, 5900, 5936, 5935
4897, 5396, 5397, 5433, 5432, 5900, 5901, 5937, 5936
4898, 5397, 5398, 5434, 5433, 5901, 5902, 5938, 5937
4899, 5398, 5399, 5435, 5434, 5902, 5903, 5939, 5938
4900, 5399, 5400, 5436, 5435, 5903, 5904, 5940, 5939
4901, 5401, 5402, 5438, 5437, 5905, 5906, 5942, 5941
4902, 5402, 5403, 5439, 5438, 5906, 5907, 5943, 5942
4903, 5403, 5404, 5440, 5439, 5907, 5908, 5944, 5943
4904, 5404, 5405, 5441, 5440, 5908, 5909, 5945, 5944
4905, 5405, 5406, 5442, 5441, 5909, 5910, 5946, 5945
4906, 5406, 5407, 5443, 5442, 5910, 5911, 5947, 5946
4907, 5407, 5408, 5444, 5443, 5911, 5912, 5948, 5947
4908, 5408, 5409, 5445, 5444, 5912, 5913, 5949, 5948
4909, 5409, 5410, 5446, 5445, 5913, 5914, 5950, 5949
4910, 5410, 5411, 5447, 5446, 5914, 5915, 5951, 5950
4911, 5411, 5412, 5448, 5447, 5915, 5916, 5952, 5951
4912, 5412, 5413, 5449, 5448, 5916, 5917, 5953, 5952
4913, 5413, 5414, 5450, 5449, 5917, 5918, 5954, 5953
4914, 5414, 5415, 5451, 5450, 5918, 5919, 5955, 5954
4915, 5415, 5416, 5452, 5451, 5919, 5920, 5956, 5955
4916, 5416, 5417, 5453, 5452, 5920, 5921, 5957, 5956
4917, 5417, 5418, 5454, 5453, 5921, 5922, 5958, 5957
4918, 5418, 5419, 5455, 5454, 5922, 5923, 5959, 5958
4919, 5419, 5420, 5456, 5455, 5923, 5924, 5960, 5959
4920, 5420, 5421, 5457, 5456, 5924, 5925, 5961, 5960
4921, 5421, 5422, 5458, 5457, 5925, 5926, 5962, 5961
4922, 5422, 5423, 5459, 5458, 5926, 5927, 5963, 5962
4923, 5423, 5424, 5460, 5459, 5927, 5928, 5964, 5963
4924, 5424, 5425, 5461, 5460, 5928, 5929, 5965, 5964
4925, 5425, 5426, 5462, 5461, 5929, 5930, 5966, 5965
4926, 5426, 5427, 5463, 5462, 5930, 5931, 5967, 5966
4927, 5427, 5428, 5464, 5463, 5931, 5932, 5968, 5967
4928, 5428, 5429, 5465, 5464, 5932, 5933, 5969, 5968
4929, 5429, 5430, 5466, 5465, 5933, 5934, 5970, 5969
4930, 5430, 5431, 5467, 5466, 5934, 5935, 5971, 5970
4931, 5431, 5432, 5468, 5467, 5935, 5936, 5972, 5971
4932, 5432, 5433, 5469, 5468, 5936, 5937, 5973, 5972
4933, 5433, 5434, 5470, 5469, 5937, 5938, 5974, 5973
4934, 5434, 5435, 5471, 5470, 5938, 5939, 5975, 5974
4935, 5435, 5436, 5472, 5471, 5939, 5940, 5976, 5975
4936, 5437, 5438, 5474, 5473, 5941, 5942, 5978, 5977
4937, 5438, 5439, 5475, 5474, 5942, 5943, 5979, 5978
4938, 5439, 5440, 5476, 5475, 5943, 5944, 5980, 5979
4939, 5440, 5441, 5477, 5476, 5944, 5945, 5981, 5980
4940, 5441, 5442, 5478, 5477, 5945, 5946, 5982, 5981
4941, 5442, 5443, 5479, 5478, 5946, 5947, 5983, 5982
4942, 5443, 5444, 5480, 5479, 5947, 5948, 5984, 5983
4943, 5444, 5445, 5481, 5480, 5948, 5949, 5985, 5984
4944, 5445, 5446, 5482, 5481, 5949, 5950, 5986, 5985
4945, 5446, 5447, 5483, 5482, 5950, 5951, 5987, 5986
4946, 5447, 5448, 5484, 5483, 5951, 5952, 5988, 5987
4947, 5448, 5449, 5485, 5484, 5952, 5953, 5989, 5988
4948, 5449, 5450, 5486, 5485, 5953, 5954, 5990, 5989
4949, 5450, 5451, 5487, 5486, 5954, 5955, 5991, 5990
4950, 5451, 5452, 5488, 5487, 5955, 5956, 5992, 5991
4951, 5452, 5453, 5489, 5488, 5956, 5957, 5993, 5992
4952, 5453, 5454, 5490, 5489, 5957, 5958, 5994, 5993
4953, 5454, 5455, 5491, 5490, 5958, 5959, 5995, 5994
4954, 5455, 5456, 5492, 5491, 5959, 5960, 5996, 5995
4955, 5456, 5457, 5493, 5492, 5960, 5961, 5997, 5996
4956, 5457, 5458, 5494, 5493, 5961, 5962, 5998, 5997
4957, 5458, 5459, 5495, 5494, 5962, 5963, 5999, 5998
4958, 5459, 5460, 5496, 5495, 5963, 5964, 6000, 5999
4959, 5460, 5461, 5497, 5496, 5964, 5965, 6001, 6000
4960, 5461, 5462, 5498, 5497, 5965, 5966, 6002, 6001
4961, 5462, 5463, 5499, 5498, 5966, 5967, 6003, 6002
4962, 5463, 5464, 5500, 5499, 5967, 5968, 6004, 6003
4963, 5464, 5465, 5501, 5500, 5968, 5969, 6005, 6004
4964, 5465, 5466, 5502, 5501, 5969, 5970, 6006, 6005
4965, 5466, 5467, 5503, 5502, 5970, 5971, 6007, 6006
4966, 5467, 5468, 5504, 5503, 5971, 5972, 6008, 6007
4967, 5468, 5469, 5505, 5504, 5972, 5973, 6009, 6008
4968, 5469, 5470, 5506, 5505, 5973, 5974, 6010, 6009
4969, 5470, 5471, 5507, 5506, 5974, 5975, 6011, 6010
4970, 5471, 5472, 5508, 5507, 5975, 5976, 6012, 6011
4971, 5473, 5474, 5510, 5509, 5977, 5978, 6014, 6013
4972, 5474, 5475, 5511, 5510, 5978, 5979, 6015, 6014
4973, 5475, 5476, 5512, 5511, 5979, 5980, 6016, 6015
4974, 5476, 5477, 5513, 5512, 5980, 5981, 6017, 6016
4975, 5477, 5478, 5514, 5513, 5981, 5982, 6018, 6017
4976, 5478, 5479, 5515, 5514, 5982, 5983, 6019, 6018
4977, 5479, 5480, 5516, 5515, 5983, 5984, 6020, 6019
4978, 5480, 5481, 5517, 5516, 5984, 5985, 6021, 6020
4979, 5481, 5482, 5518, 5517, 5985, 5986, 6022, 6021
4980, 5482, 5483, 5519, 5518, 5986, 5987, 6023, 6022
4981, 5483, 5484, 5520, 5519, 5987, 5988, 6024, 6023
4982, 5484, 5485, 5521, 5520, 5988, 5989, 6025, 6024
4983, 5485, 5486, 5522, 5521, 5989, 5990, 6026, 6025
4984, 5486, 5487, 5523, 5522, 5990, 5991, 6027, 6026
4985, 5487, 5488, 5524, 5523, 5991, 5992, 6028, 6027
4986, 5488, 5489, 5525, 5524, 5992, 5993, 6029, 6028
4987, 5489, 5490, 5526, 5525, 5993, 5994, 6030, 6029
4988, 5490, 5491, 5527, 5526, 5994, 5995, 6031, 6030
4989, 5491, 5492, 5528, 5527, 5995, 5996, 6032, 6031
4990, 5492, 5493, 5529, 5528, 5996, 5997, 6033, 6032
4991, 5493, 5494, 5530, 5529, 5997, 5998, 6034, 6033
4992, 5494, 5495, 5531, 5530, 5998, 5999, 6035, 6034
4993, 5495, 5496, 5532, 5531, 5999, 6000, 6036, 6035
4994, 5496, 5497, 5533, 5532, 6000, 6001, 6037, 6036
4995, 5497, 5498, 5534, 5533, 6001, 6002, 6038, 6037
4996, 5498, 5499, 5535, 5534, 6002, 6003, 6039, 6038
4997, 5499, 5500, 5536, 5535, 6003, 6004, 6040, 6039
4998, 5500, 5501, 5537, 5536, 6004, 6005, 6041, 6040
4999, 5501, 5502, 5538, 5537, 6005, 6006, 6042, 6041
5000, 5502, 5503, 5539, 5538, 6006, 6007, 6043, 6042
5001, 5503, 5504, 5540, 5539, 6007, 6008, 6044, 6043
5002, 5504, 5505, 5541, 5540, 6008, 6009, 6045, 6044
5003, 5505, 5506, 5542, 5541, 6009, 6010, 6046, 6045
5004, 5506, 5507, 5543, 5542, 6010, 6011, 6047, 6046
5005, 5507, 5508, 5544, 5543, 6011, 6012, 6048, 6047
*Nset, nset=ALL_NODES, generate
1, 6048, 1
*Nset, nset=BACK
1, 2, 3, 4, 5, 6, 7, 8, 9, 10, 11, 12, 13, 14, 15, 16
17, 18, 19, 20, 21, 22, 23, 24, 25, 26, 27, 28, 29, 30, 31, 32
33, 34, 35, 36, 37, 38, 39, 40, 41, 42, 43, 44, 45, 46, 47, 48
49, 50, 51, 52, 53, 54, 55, 56, 57, 58, 59, 60, 61, 62, 63, 64
65, 66, 67, 68, 69, 70, 71, 72, 73, 74, 75, 76, 77, 78, 79, 80
81, 82, 83, 84, 85, 86, 87, 88, 89, 90, 91, 92, 93, 94, 95, 96
97, 98, 99, 100, 101, 102, 103, 104, 105, 106, 107, 108, 109, 110, 111, 112
113, 114, 115, 116, 117, 118, 119, 120, 121, 122, 123, 124, 125, 126, 127, 128
129, 130, 131, 132, 133, 134, 135, 136, 137, 138, 139, 140, 141, 142, 143, 144
145, 146, 147, 148, 149, 150, 151, 152, 153, 154, 155, 156, 157, 158, 159, 160
161, 162, 163, 164, 165, 166, 167, 168, 169, 170, 171, 172, 173, 174, 175, 176
177, 178, 179, 180, 181, 182, 183, 184, 185, 186, 187, 188, 189, 190, 191, 192
193, 194, 195, 196, 197, 198, 199, 200, 201, 202, 203, 204, 205, 206, 207, 208
209, 210, 211, 212, 213, 214, 215, 216, 217, 218, 219, 220, 221, 222, 223, 224
225, 226, 227, 228, 229, 230, 231, 232, 233, 234, 235, 236, 237, 238, 239, 240
241, 242, 243, 244, 245, 246, 247, 248, 249, 250, 251, 252, 253, 254, 255, 256
257, 258, 259, 260, 261, 262, 263, 264, 265, 266, 267, 268, 269, 270, 271, 272
273, 274, 275, 276, 277, 278, 279, 280, 281, 282, 283, 284, 285, 286, 287, 288
289, 290, 291, 292, 293, 294, 295, 296, 297, 298, 299, 300, 301, 302, 303, 304
305, 306, 307, 308, 309, 310, 311, 312, 313, 314, 315, 316, 317, 318, 319, 320
321, 322, 323, 324, 325, 326, 327, 328, 329, 330, 331, 332, 333, 334, 335, 336
337, 338, 339, 340, 341, 342, 343, 344, 345, 346, 347, 348, 349, 350, 351, 352
353, 354, 355, 356, 357, 358, 359, 360, 361, 362, 363, 364, 365, 366, 367, 368
369, 370, 371, 372, 373, 374, 375, 376, 377, 378, 379, 380, 381, 382, 383, 384
385, 386, 387, 388, 389, 390, 391, 392, 393, 394, 395, 396, 397, 398, 399, 400
401, 402, 403, 404, 405, 406, 407, 408, 409, 410, 411, 412, 413, 414, 415, 416
417, 418, 419, 420, 421, 422, 423, 424, 425, 426, 427, 428, 429, 430, 431, 432
433, 434, 435, 436, 437, 438, 439, 440, 441, 442, 443, 444, 445, 446, 447, 448
449, 450, 451, 452, 453, 454, 455, 456, 457, 458, 459, 460, 461, 462, 463, 464
465, 466, 467, 468, 469, 470, 471, 472, 473, 474, 475, 476, 477, 478, 479, 480
481, 482, 483, 484, 485, 486, 487, 488, 489, 490, 491, 492, 493, 494, 495, 496
497, 498, 499, 500, 501, 502, 503, 504
*Nset, nset=CENTER_FRONT
5778, 5779, 5814, 5815
*Elset, elset=TOP_ELEMENTS
4551, 4552, 4553, 4554, 4555, 4556, 4557, 4558, 4559, 4560, 4561, 4562, 4563, 4564, 4565, 4566
4567, 4568, 4569, 4570, 4571, 4572, 4573, 4574, 4575, 4576, 4577, 4578, 4579, 4580, 4581, 4582
4583, 4584, 4585, 4586, 4587, 4588, 4589, 4590, 4591, 4592, 4593, 4594, 4595, 4596, 4597, 4598
4599, 4600, 4601, 4602, 4603, 4604, 4605, 4606, 4607, 4608, 4609, 4610, 4611, 4612, 4613, 4614
4615, 4616, 4617, 4618, 4619, 4620, 4621, 4622, 4623, 4624, 4625, 4626, 4627, 4628, 4629, 4630
4631, 4632, 4633, 4634, 4635, 4636, 4637, 4638, 4639, 4640, 4641, 4642, 4643, 4644, 4645, 4646
4647, 4648, 4649, 4650, 4651, 4652, 4653, 4654, 4655, 4656, 4657, 4658, 4659, 4660, 4661, 4662
4663, 4664, 4665, 4666, 4667, 4668, 4669, 4670, 4671, 4672, 4673, 4674, 4675, 4676, 4677, 4678
4679, 4680, 4681, 4682, 4683, 4684, 4685, 4686, 4687, 4688, 4689, 4690, 4691, 4692, 4693, 4694
4695, 4696, 4697, 4698, 4699, 4700, 4701, 4702, 4703, 4704, 4705, 4706, 4707, 4708, 4709, 4710
4711, 4712, 4713, 4714, 4715, 4716, 4717, 4718, 4719, 4720, 4721, 4722, 4723, 4724, 4725, 4726
4727, 4728, 4729, 4730, 4731, 4732, 4733, 4734, 4735, 4736, 4737, 4738, 4739, 4740, 4741, 4742
4743, 4744, 4745, 4746, 4747, 4748, 4749, 4750, 4751, 4752, 4753, 4754, 4755, 4756, 4757, 4758
4759, 4760, 4761, 4762, 4763, 4764, 4765, 4766, 4767, 4768, 4769, 4770, 4771, 4772, 4773, 4774
4775, 4776, 4777, 4778, 4779, 4780, 4781, 4782, 4783, 4784, 4785, 4786, 4787, 4788, 4789, 4790
4791, 4792, 4793, 4794, 4795, 4796, 4797, 4798, 4799, 4800, 4801, 4802, 4803, 4804, 4805, 4806
4807, 4808, 4809, 4810, 4811, 4812, 4813, 4814, 4815, 4816, 4817, 4818, 4819, 4820, 4821, 4822
4823, 4824, 4825, 4826, 4827, 4828, 4829, 4830, 4831, 4832, 4833, 4834, 4835, 4836, 4837, 4838
4839, 4840, 4841, 4842, 4843, 4844, 4845, 4846, 4847, 4848, 4849, 4850, 4851, 4852, 4853, 4854
4855, 4856, 4857, 4858, 4859, 4860, 4861, 4862, 4863, 4864, 4865, 4866, 4867, 4868, 4869, 4870
4871, 4872, 4873, 4874, 4875, 4876, 4877, 4878, 4879, 4880, 4881, 4882, 4883, 4884, 4885, 4886
4887, 4888, 4889, 4890, 4891, 4892, 4893, 4894, 4895, 4896, 4897, 4898, 4899, 4900, 4901, 4902
4903, 4904, 4905, 4906, 4907, 4908, 4909, 4910, 4911, 4912, 4913, 4914, 4915, 4916, 4917, 4918
4919, 4920, 4921, 4922, 4923, 4924, 4925, 4926, 4927, 4928, 4929, 4930, 4931, 4932, 4933, 4934
4935, 4936, 4937, 4938, 4939, 4940, 4941, 4942, 4943, 4944, 4945, 4946, 4947, 4948, 4949, 4950
4951, 4952, 4953, 4954, 4955, 4956, 4957, 4958, 4959, 4960, 4961, 4962, 4963, 4964, 4965, 4966
4967, 4968, 4969, 4970, 4971, 4972, 4973, 4974, 4975, 4976, 4977, 4978, 4979, 4980, 4981, 4982
4983, 4984, 4985, 4986, 4987, 4988, 4989, 4990, 4991, 4992, 4993, 4994, 4995, 4996, 4997, 4998
4999, 5000, 5001, 5002, 5003, 5004, 5005
*Surface, type=ELEMENT, name=IMPACT_FACE
TOP_ELEMENTS, S2
*Solid Section, elset=ALL_ELEMENTS, material=POLYUREA_RNO
,
*End Part
*Part, name=IMPACTOR
*Node
10001, -5.000000000000e-03, -5.000000000000e-03, 1.000000000000e-02
10002, 0.000000000000e+00, -5.000000000000e-03, 1.000000000000e-02
10003, 5.000000000000e-03, -5.000000000000e-03, 1.000000000000e-02
10004, -5.000000000000e-03, 0.000000000000e+00, 1.000000000000e-02
10005, 0.000000000000e+00, 0.000000000000e+00, 1.000000000000e-02
10006, 5.000000000000e-03, 0.000000000000e+00, 1.000000000000e-02
10007, -5.000000000000e-03, 5.000000000000e-03, 1.000000000000e-02
10008, 0.000000000000e+00, 5.000000000000e-03, 1.000000000000e-02
10009, 5.000000000000e-03, 5.000000000000e-03, 1.000000000000e-02
10010, -5.000000000000e-03, -5.000000000000e-03, 1.080000000000e-02
10011, 0.000000000000e+00, -5.000000000000e-03, 1.080000000000e-02
10012, 5.000000000000e-03, -5.000000000000e-03, 1.080000000000e-02
10013, -5.000000000000e-03, 0.000000000000e+00, 1.080000000000e-02
10014, 0.000000000000e+00, 0.000000000000e+00, 1.080000000000e-02
10015, 5.000000000000e-03, 0.000000000000e+00, 1.080000000000e-02
10016, -5.000000000000e-03, 5.000000000000e-03, 1.080000000000e-02
10017, 0.000000000000e+00, 5.000000000000e-03, 1.080000000000e-02
10018, 5.000000000000e-03, 5.000000000000e-03, 1.080000000000e-02
10019, -5.000000000000e-03, -5.000000000000e-03, 1.160000000000e-02
10020, 0.000000000000e+00, -5.000000000000e-03, 1.160000000000e-02
10021, 5.000000000000e-03, -5.000000000000e-03, 1.160000000000e-02
10022, -5.000000000000e-03, 0.000000000000e+00, 1.160000000000e-02
10023, 0.000000000000e+00, 0.000000000000e+00, 1.160000000000e-02
10024, 5.000000000000e-03, 0.000000000000e+00, 1.160000000000e-02
10025, -5.000000000000e-03, 5.000000000000e-03, 1.160000000000e-02
10026, 0.000000000000e+00, 5.000000000000e-03, 1.160000000000e-02
10027, 5.000000000000e-03, 5.000000000000e-03, 1.160000000000e-02
10028, -5.000000000000e-03, -5.000000000000e-03, 1.240000000000e-02
10029, 0.000000000000e+00, -5.000000000000e-03, 1.240000000000e-02
10030, 5.000000000000e-03, -5.000000000000e-03, 1.240000000000e-02
10031, -5.000000000000e-03, 0.000000000000e+00, 1.240000000000e-02
10032, 0.000000000000e+00, 0.000000000000e+00, 1.240000000000e-02
10033, 5.000000000000e-03, 0.000000000000e+00, 1.240000000000e-02
10034, -5.000000000000e-03, 5.000000000000e-03, 1.240000000000e-02
10035, 0.000000000000e+00, 5.000000000000e-03, 1.240000000000e-02
10036, 5.000000000000e-03, 5.000000000000e-03, 1.240000000000e-02
10037, -5.000000000000e-03, -5.000000000000e-03, 1.320000000000e-02
10038, 0.000000000000e+00, -5.000000000000e-03, 1.320000000000e-02
10039, 5.000000000000e-03, -5.000000000000e-03, 1.320000000000e-02
10040, -5.000000000000e-03, 0.000000000000e+00, 1.320000000000e-02
10041, 0.000000000000e+00, 0.000000000000e+00, 1.320000000000e-02
10042, 5.000000000000e-03, 0.000000000000e+00, 1.320000000000e-02
10043, -5.000000000000e-03, 5.000000000000e-03, 1.320000000000e-02
10044, 0.000000000000e+00, 5.000000000000e-03, 1.320000000000e-02
10045, 5.000000000000e-03, 5.000000000000e-03, 1.320000000000e-02
10046, -5.000000000000e-03, -5.000000000000e-03, 1.400000000000e-02
10047, 0.000000000000e+00, -5.000000000000e-03, 1.400000000000e-02
10048, 5.000000000000e-03, -5.000000000000e-03, 1.400000000000e-02
10049, -5.000000000000e-03, 0.000000000000e+00, 1.400000000000e-02
10050, 0.000000000000e+00, 0.000000000000e+00, 1.400000000000e-02
10051, 5.000000000000e-03, 0.000000000000e+00, 1.400000000000e-02
10052, -5.000000000000e-03, 5.000000000000e-03, 1.400000000000e-02
10053, 0.000000000000e+00, 5.000000000000e-03, 1.400000000000e-02
10054, 5.000000000000e-03, 5.000000000000e-03, 1.400000000000e-02
10055, -5.000000000000e-03, -5.000000000000e-03, 1.480000000000e-02
10056, 0.000000000000e+00, -5.000000000000e-03, 1.480000000000e-02
10057, 5.000000000000e-03, -5.000000000000e-03, 1.480000000000e-02
10058, -5.000000000000e-03, 0.000000000000e+00, 1.480000000000e-02
10059, 0.000000000000e+00, 0.000000000000e+00, 1.480000000000e-02
10060, 5.000000000000e-03, 0.000000000000e+00, 1.480000000000e-02
10061, -5.000000000000e-03, 5.000000000000e-03, 1.480000000000e-02
10062, 0.000000000000e+00, 5.000000000000e-03, 1.480000000000e-02
10063, 5.000000000000e-03, 5.000000000000e-03, 1.480000000000e-02
10064, -5.000000000000e-03, -5.000000000000e-03, 1.560000000000e-02
10065, 0.000000000000e+00, -5.000000000000e-03, 1.560000000000e-02
10066, 5.000000000000e-03, -5.000000000000e-03, 1.560000000000e-02
10067, -5.000000000000e-03, 0.000000000000e+00, 1.560000000000e-02
10068, 0.000000000000e+00, 0.000000000000e+00, 1.560000000000e-02
10069, 5.000000000000e-03, 0.000000000000e+00, 1.560000000000e-02
10070, -5.000000000000e-03, 5.000000000000e-03, 1.560000000000e-02
10071, 0.000000000000e+00, 5.000000000000e-03, 1.560000000000e-02
10072, 5.000000000000e-03, 5.000000000000e-03, 1.560000000000e-02
10073, -5.000000000000e-03, -5.000000000000e-03, 1.640000000000e-02
10074, 0.000000000000e+00, -5.000000000000e-03, 1.640000000000e-02
10075, 5.000000000000e-03, -5.000000000000e-03, 1.640000000000e-02
10076, -5.000000000000e-03, 0.000000000000e+00, 1.640000000000e-02
10077, 0.000000000000e+00, 0.000000000000e+00, 1.640000000000e-02
10078, 5.000000000000e-03, 0.000000000000e+00, 1.640000000000e-02
10079, -5.000000000000e-03, 5.000000000000e-03, 1.640000000000e-02
10080, 0.000000000000e+00, 5.000000000000e-03, 1.640000000000e-02
10081, 5.000000000000e-03, 5.000000000000e-03, 1.640000000000e-02
10082, -5.000000000000e-03, -5.000000000000e-03, 1.720000000000e-02
10083, 0.000000000000e+00, -5.000000000000e-03, 1.720000000000e-02
10084, 5.000000000000e-03, -5.000000000000e-03, 1.720000000000e-02
10085, -5.000000000000e-03, 0.000000000000e+00, 1.720000000000e-02
10086, 0.000000000000e+00, 0.000000000000e+00, 1.720000000000e-02
10087, 5.000000000000e-03, 0.000000000000e+00, 1.720000000000e-02
10088, -5.000000000000e-03, 5.000000000000e-03, 1.720000000000e-02
10089, 0.000000000000e+00, 5.000000000000e-03, 1.720000000000e-02
10090, 5.000000000000e-03, 5.000000000000e-03, 1.720000000000e-02
10091, -5.000000000000e-03, -5.000000000000e-03, 1.800000000000e-02
10092, 0.000000000000e+00, -5.000000000000e-03, 1.800000000000e-02
10093, 5.000000000000e-03, -5.000000000000e-03, 1.800000000000e-02
10094, -5.000000000000e-03, 0.000000000000e+00, 1.800000000000e-02
10095, 0.000000000000e+00, 0.000000000000e+00, 1.800000000000e-02
10096, 5.000000000000e-03, 0.000000000000e+00, 1.800000000000e-02
10097, -5.000000000000e-03, 5.000000000000e-03, 1.800000000000e-02
10098, 0.000000000000e+00, 5.000000000000e-03, 1.800000000000e-02
10099, 5.000000000000e-03, 5.000000000000e-03, 1.800000000000e-02
10100, -5.000000000000e-03, -5.000000000000e-03, 1.880000000000e-02
10101, 0.000000000000e+00, -5.000000000000e-03, 1.880000000000e-02
10102, 5.000000000000e-03, -5.000000000000e-03, 1.880000000000e-02
10103, -5.000000000000e-03, 0.000000000000e+00, 1.880000000000e-02
10104, 0.000000000000e+00, 0.000000000000e+00, 1.880000000000e-02
10105, 5.000000000000e-03, 0.000000000000e+00, 1.880000000000e-02
10106, -5.000000000000e-03, 5.000000000000e-03, 1.880000000000e-02
10107, 0.000000000000e+00, 5.000000000000e-03, 1.880000000000e-02
10108, 5.000000000000e-03, 5.000000000000e-03, 1.880000000000e-02
10109, -5.000000000000e-03, -5.000000000000e-03, 1.960000000000e-02
10110, 0.000000000000e+00, -5.000000000000e-03, 1.960000000000e-02
10111, 5.000000000000e-03, -5.000000000000e-03, 1.960000000000e-02
10112, -5.000000000000e-03, 0.000000000000e+00, 1.960000000000e-02
10113, 0.000000000000e+00, 0.000000000000e+00, 1.960000000000e-02
10114, 5.000000000000e-03, 0.000000000000e+00, 1.960000000000e-02
10115, -5.000000000000e-03, 5.000000000000e-03, 1.960000000000e-02
10116, 0.000000000000e+00, 5.000000000000e-03, 1.960000000000e-02
10117, 5.000000000000e-03, 5.000000000000e-03, 1.960000000000e-02
10118, -5.000000000000e-03, -5.000000000000e-03, 2.040000000000e-02
10119, 0.000000000000e+00, -5.000000000000e-03, 2.040000000000e-02
10120, 5.000000000000e-03, -5.000000000000e-03, 2.040000000000e-02
10121, -5.000000000000e-03, 0.000000000000e+00, 2.040000000000e-02
10122, 0.000000000000e+00, 0.000000000000e+00, 2.040000000000e-02
10123, 5.000000000000e-03, 0.000000000000e+00, 2.040000000000e-02
10124, -5.000000000000e-03, 5.000000000000e-03, 2.040000000000e-02
10125, 0.000000000000e+00, 5.000000000000e-03, 2.040000000000e-02
10126, 5.000000000000e-03, 5.000000000000e-03, 2.040000000000e-02
10127, -5.000000000000e-03, -5.000000000000e-03, 2.120000000000e-02
10128, 0.000000000000e+00, -5.000000000000e-03, 2.120000000000e-02
10129, 5.000000000000e-03, -5.000000000000e-03, 2.120000000000e-02
10130, -5.000000000000e-03, 0.000000000000e+00, 2.120000000000e-02
10131, 0.000000000000e+00, 0.000000000000e+00, 2.120000000000e-02
10132, 5.000000000000e-03, 0.000000000000e+00, 2.120000000000e-02
10133, -5.000000000000e-03, 5.000000000000e-03, 2.120000000000e-02
10134, 0.000000000000e+00, 5.000000000000e-03, 2.120000000000e-02
10135, 5.000000000000e-03, 5.000000000000e-03, 2.120000000000e-02
10136, -5.000000000000e-03, -5.000000000000e-03, 2.200000000000e-02
10137, 0.000000000000e+00, -5.000000000000e-03, 2.200000000000e-02
10138, 5.000000000000e-03, -5.000000000000e-03, 2.200000000000e-02
10139, -5.000000000000e-03, 0.000000000000e+00, 2.200000000000e-02
10140, 0.000000000000e+00, 0.000000000000e+00, 2.200000000000e-02
10141, 5.000000000000e-03, 0.000000000000e+00, 2.200000000000e-02
10142, -5.000000000000e-03, 5.000000000000e-03, 2.200000000000e-02
10143, 0.000000000000e+00, 5.000000000000e-03, 2.200000000000e-02
10144, 5.000000000000e-03, 5.000000000000e-03, 2.200000000000e-02
10145, -5.000000000000e-03, -5.000000000000e-03, 2.280000000000e-02
10146, 0.000000000000e+00, -5.000000000000e-03, 2.280000000000e-02
10147, 5.000000000000e-03, -5.000000000000e-03, 2.280000000000e-02
10148, -5.000000000000e-03, 0.000000000000e+00, 2.280000000000e-02
10149, 0.000000000000e+00, 0.000000000000e+00, 2.280000000000e-02
10150, 5.000000000000e-03, 0.000000000000e+00, 2.280000000000e-02
10151, -5.000000000000e-03, 5.000000000000e-03, 2.280000000000e-02
10152, 0.000000000000e+00, 5.000000000000e-03, 2.280000000000e-02
10153, 5.000000000000e-03, 5.000000000000e-03, 2.280000000000e-02
10154, -5.000000000000e-03, -5.000000000000e-03, 2.360000000000e-02
10155, 0.000000000000e+00, -5.000000000000e-03, 2.360000000000e-02
10156, 5.000000000000e-03, -5.000000000000e-03, 2.360000000000e-02
10157, -5.000000000000e-03, 0.000000000000e+00, 2.360000000000e-02
10158, 0.000000000000e+00, 0.000000000000e+00, 2.360000000000e-02
10159, 5.000000000000e-03, 0.000000000000e+00, 2.360000000000e-02
10160, -5.000000000000e-03, 5.000000000000e-03, 2.360000000000e-02
10161, 0.000000000000e+00, 5.000000000000e-03, 2.360000000000e-02
10162, 5.000000000000e-03, 5.000000000000e-03, 2.360000000000e-02
10163, -5.000000000000e-03, -5.000000000000e-03, 2.440000000000e-02
10164, 0.000000000000e+00, -5.000000000000e-03, 2.440000000000e-02
10165, 5.000000000000e-03, -5.000000000000e-03, 2.440000000000e-02
10166, -5.000000000000e-03, 0.000000000000e+00, 2.440000000000e-02
10167, 0.000000000000e+00, 0.000000000000e+00, 2.440000000000e-02
10168, 5.000000000000e-03, 0.000000000000e+00, 2.440000000000e-02
10169, -5.000000000000e-03, 5.000000000000e-03, 2.440000000000e-02
10170, 0.000000000000e+00, 5.000000000000e-03, 2.440000000000e-02
10171, 5.000000000000e-03, 5.000000000000e-03, 2.440000000000e-02
10172, -5.000000000000e-03, -5.000000000000e-03, 2.520000000000e-02
10173, 0.000000000000e+00, -5.000000000000e-03, 2.520000000000e-02
10174, 5.000000000000e-03, -5.000000000000e-03, 2.520000000000e-02
10175, -5.000000000000e-03, 0.000000000000e+00, 2.520000000000e-02
10176, 0.000000000000e+00, 0.000000000000e+00, 2.520000000000e-02
10177, 5.000000000000e-03, 0.000000000000e+00, 2.520000000000e-02
10178, -5.000000000000e-03, 5.000000000000e-03, 2.520000000000e-02
10179, 0.000000000000e+00, 5.000000000000e-03, 2.520000000000e-02
10180, 5.000000000000e-03, 5.000000000000e-03, 2.520000000000e-02
10181, -5.000000000000e-03, -5.000000000000e-03, 2.600000000000e-02
10182, 0.000000000000e+00, -5.000000000000e-03, 2.600000000000e-02
10183, 5.000000000000e-03, -5.000000000000e-03, 2.600000000000e-02
10184, -5.000000000000e-03, 0.000000000000e+00, 2.600000000000e-02
10185, 0.000000000000e+00, 0.000000000000e+00, 2.600000000000e-02
10186, 5.000000000000e-03, 0.000000000000e+00, 2.600000000000e-02
10187, -5.000000000000e-03, 5.000000000000e-03, 2.600000000000e-02
10188, 0.000000000000e+00, 5.000000000000e-03, 2.600000000000e-02
10189, 5.000000000000e-03, 5.000000000000e-03, 2.600000000000e-02
10190, -5.000000000000e-03, -5.000000000000e-03, 2.680000000000e-02
10191, 0.000000000000e+00, -5.000000000000e-03, 2.680000000000e-02
10192, 5.000000000000e-03, -5.000000000000e-03, 2.680000000000e-02
10193, -5.000000000000e-03, 0.000000000000e+00, 2.680000000000e-02
10194, 0.000000000000e+00, 0.000000000000e+00, 2.680000000000e-02
10195, 5.000000000000e-03, 0.000000000000e+00, 2.680000000000e-02
10196, -5.000000000000e-03, 5.000000000000e-03, 2.680000000000e-02
10197, 0.000000000000e+00, 5.000000000000e-03, 2.680000000000e-02
10198, 5.000000000000e-03, 5.000000000000e-03, 2.680000000000e-02
10199, -5.000000000000e-03, -5.000000000000e-03, 2.760000000000e-02
10200, 0.000000000000e+00, -5.000000000000e-03, 2.760000000000e-02
10201, 5.000000000000e-03, -5.000000000000e-03, 2.760000000000e-02
10202, -5.000000000000e-03, 0.000000000000e+00, 2.760000000000e-02
10203, 0.000000000000e+00, 0.000000000000e+00, 2.760000000000e-02
10204, 5.000000000000e-03, 0.000000000000e+00, 2.760000000000e-02
10205, -5.000000000000e-03, 5.000000000000e-03, 2.760000000000e-02
10206, 0.000000000000e+00, 5.000000000000e-03, 2.760000000000e-02
10207, 5.000000000000e-03, 5.000000000000e-03, 2.760000000000e-02
10208, -5.000000000000e-03, -5.000000000000e-03, 2.840000000000e-02
10209, 0.000000000000e+00, -5.000000000000e-03, 2.840000000000e-02
10210, 5.000000000000e-03, -5.000000000000e-03, 2.840000000000e-02
10211, -5.000000000000e-03, 0.000000000000e+00, 2.840000000000e-02
10212, 0.000000000000e+00, 0.000000000000e+00, 2.840000000000e-02
10213, 5.000000000000e-03, 0.000000000000e+00, 2.840000000000e-02
10214, -5.000000000000e-03, 5.000000000000e-03, 2.840000000000e-02
10215, 0.000000000000e+00, 5.000000000000e-03, 2.840000000000e-02
10216, 5.000000000000e-03, 5.000000000000e-03, 2.840000000000e-02
10217, -5.000000000000e-03, -5.000000000000e-03, 2.920000000000e-02
10218, 0.000000000000e+00, -5.000000000000e-03, 2.920000000000e-02
10219, 5.000000000000e-03, -5.000000000000e-03, 2.920000000000e-02
10220, -5.000000000000e-03, 0.000000000000e+00, 2.920000000000e-02
10221, 0.000000000000e+00, 0.000000000000e+00, 2.920000000000e-02
10222, 5.000000000000e-03, 0.000000000000e+00, 2.920000000000e-02
10223, -5.000000000000e-03, 5.000000000000e-03, 2.920000000000e-02
10224, 0.000000000000e+00, 5.000000000000e-03, 2.920000000000e-02
10225, 5.000000000000e-03, 5.000000000000e-03, 2.920000000000e-02
10226, -5.000000000000e-03, -5.000000000000e-03, 3.000000000000e-02
10227, 0.000000000000e+00, -5.000000000000e-03, 3.000000000000e-02
10228, 5.000000000000e-03, -5.000000000000e-03, 3.000000000000e-02
10229, -5.000000000000e-03, 0.000000000000e+00, 3.000000000000e-02
10230, 0.000000000000e+00, 0.000000000000e+00, 3.000000000000e-02
10231, 5.000000000000e-03, 0.000000000000e+00, 3.000000000000e-02
10232, -5.000000000000e-03, 5.000000000000e-03, 3.000000000000e-02
10233, 0.000000000000e+00, 5.000000000000e-03, 3.000000000000e-02
10234, 5.000000000000e-03, 5.000000000000e-03, 3.000000000000e-02
*Element, type=C3D8R, elset=ALL_ELEMENTS
10001, 10001, 10002, 10005, 10004, 10010, 10011, 10014, 10013
10002, 10002, 10003, 10006, 10005, 10011, 10012, 10015, 10014
10003, 10004, 10005, 10008, 10007, 10013, 10014, 10017, 10016
10004, 10005, 10006, 10009, 10008, 10014, 10015, 10018, 10017
10005, 10010, 10011, 10014, 10013, 10019, 10020, 10023, 10022
10006, 10011, 10012, 10015, 10014, 10020, 10021, 10024, 10023
10007, 10013, 10014, 10017, 10016, 10022, 10023, 10026, 10025
10008, 10014, 10015, 10018, 10017, 10023, 10024, 10027, 10026
10009, 10019, 10020, 10023, 10022, 10028, 10029, 10032, 10031
10010, 10020, 10021, 10024, 10023, 10029, 10030, 10033, 10032
10011, 10022, 10023, 10026, 10025, 10031, 10032, 10035, 10034
10012, 10023, 10024, 10027, 10026, 10032, 10033, 10036, 10035
10013, 10028, 10029, 10032, 10031, 10037, 10038, 10041, 10040
10014, 10029, 10030, 10033, 10032, 10038, 10039, 10042, 10041
10015, 10031, 10032, 10035, 10034, 10040, 10041, 10044, 10043
10016, 10032, 10033, 10036, 10035, 10041, 10042, 10045, 10044
10017, 10037, 10038, 10041, 10040, 10046, 10047, 10050, 10049
10018, 10038, 10039, 10042, 10041, 10047, 10048, 10051, 10050
10019, 10040, 10041, 10044, 10043, 10049, 10050, 10053, 10052
10020, 10041, 10042, 10045, 10044, 10050, 10051, 10054, 10053
10021, 10046, 10047, 10050, 10049, 10055, 10056, 10059, 10058
10022, 10047, 10048, 10051, 10050, 10056, 10057, 10060, 10059
10023, 10049, 10050, 10053, 10052, 10058, 10059, 10062, 10061
10024, 10050, 10051, 10054, 10053, 10059, 10060, 10063, 10062
10025, 10055, 10056, 10059, 10058, 10064, 10065, 10068, 10067
10026, 10056, 10057, 10060, 10059, 10065, 10066, 10069, 10068
10027, 10058, 10059, 10062, 10061, 10067, 10068, 10071, 10070
10028, 10059, 10060, 10063, 10062, 10068, 10069, 10072, 10071
10029, 10064, 10065, 10068, 10067, 10073, 10074, 10077, 10076
10030, 10065, 10066, 10069, 10068, 10074, 10075, 10078, 10077
10031, 10067, 10068, 10071, 10070, 10076, 10077, 10080, 10079
10032, 10068, 10069, 10072, 10071, 10077, 10078, 10081, 10080
10033, 10073, 10074, 10077, 10076, 10082, 10083, 10086, 10085
10034, 10074, 10075, 10078, 10077, 10083, 10084, 10087, 10086
10035, 10076, 10077, 10080, 10079, 10085, 10086, 10089, 10088
10036, 10077, 10078, 10081, 10080, 10086, 10087, 10090, 10089
10037, 10082, 10083, 10086, 10085, 10091, 10092, 10095, 10094
10038, 10083, 10084, 10087, 10086, 10092, 10093, 10096, 10095
10039, 10085, 10086, 10089, 10088, 10094, 10095, 10098, 10097
10040, 10086, 10087, 10090, 10089, 10095, 10096, 10099, 10098
10041, 10091, 10092, 10095, 10094, 10100, 10101, 10104, 10103
10042, 10092, 10093, 10096, 10095, 10101, 10102, 10105, 10104
10043, 10094, 10095, 10098, 10097, 10103, 10104, 10107, 10106
10044, 10095, 10096, 10099, 10098, 10104, 10105, 10108, 10107
10045, 10100, 10101, 10104, 10103, 10109, 10110, 10113, 10112
10046, 10101, 10102, 10105, 10104, 10110, 10111, 10114, 10113
10047, 10103, 10104, 10107, 10106, 10112, 10113, 10116, 10115
10048, 10104, 10105, 10108, 10107, 10113, 10114, 10117, 10116
10049, 10109, 10110, 10113, 10112, 10118, 10119, 10122, 10121
10050, 10110, 10111, 10114, 10113, 10119, 10120, 10123, 10122
10051, 10112, 10113, 10116, 10115, 10121, 10122, 10125, 10124
10052, 10113, 10114, 10117, 10116, 10122, 10123, 10126, 10125
10053, 10118, 10119, 10122, 10121, 10127, 10128, 10131, 10130
10054, 10119, 10120, 10123, 10122, 10128, 10129, 10132, 10131
10055, 10121, 10122, 10125, 10124, 10130, 10131, 10134, 10133
10056, 10122, 10123, 10126, 10125, 10131, 10132, 10135, 10134
10057, 10127, 10128, 10131, 10130, 10136, 10137, 10140, 10139
10058, 10128, 10129, 10132, 10131, 10137, 10138, 10141, 10140
10059, 10130, 10131, 10134, 10133, 10139, 10140, 10143, 10142
10060, 10131, 10132, 10135, 10134, 10140, 10141, 10144, 10143
10061, 10136, 10137, 10140, 10139, 10145, 10146, 10149, 10148
10062, 10137, 10138, 10141, 10140, 10146, 10147, 10150, 10149
10063, 10139, 10140, 10143, 10142, 10148, 10149, 10152, 10151
10064, 10140, 10141, 10144, 10143, 10149, 10150, 10153, 10152
10065, 10145, 10146, 10149, 10148, 10154, 10155, 10158, 10157
10066, 10146, 10147, 10150, 10149, 10155, 10156, 10159, 10158
10067, 10148, 10149, 10152, 10151, 10157, 10158, 10161, 10160
10068, 10149, 10150, 10153, 10152, 10158, 10159, 10162, 10161
10069, 10154, 10155, 10158, 10157, 10163, 10164, 10167, 10166
10070, 10155, 10156, 10159, 10158, 10164, 10165, 10168, 10167
10071, 10157, 10158, 10161, 10160, 10166, 10167, 10170, 10169
10072, 10158, 10159, 10162, 10161, 10167, 10168, 10171, 10170
10073, 10163, 10164, 10167, 10166, 10172, 10173, 10176, 10175
10074, 10164, 10165, 10168, 10167, 10173, 10174, 10177, 10176
10075, 10166, 10167, 10170, 10169, 10175, 10176, 10179, 10178
10076, 10167, 10168, 10171, 10170, 10176, 10177, 10180, 10179
10077, 10172, 10173, 10176, 10175, 10181, 10182, 10185, 10184
10078, 10173, 10174, 10177, 10176, 10182, 10183, 10186, 10185
10079, 10175, 10176, 10179, 10178, 10184, 10185, 10188, 10187
10080, 10176, 10177, 10180, 10179, 10185, 10186, 10189, 10188
10081, 10181, 10182, 10185, 10184, 10190, 10191, 10194, 10193
10082, 10182, 10183, 10186, 10185, 10191, 10192, 10195, 10194
10083, 10184, 10185, 10188, 10187, 10193, 10194, 10197, 10196
10084, 10185, 10186, 10189, 10188, 10194, 10195, 10198, 10197
10085, 10190, 10191, 10194, 10193, 10199, 10200, 10203, 10202
10086, 10191, 10192, 10195, 10194, 10200, 10201, 10204, 10203
10087, 10193, 10194, 10197, 10196, 10202, 10203, 10206, 10205
10088, 10194, 10195, 10198, 10197, 10203, 10204, 10207, 10206
10089, 10199, 10200, 10203, 10202, 10208, 10209, 10212, 10211
10090, 10200, 10201, 10204, 10203, 10209, 10210, 10213, 10212
10091, 10202, 10203, 10206, 10205, 10211, 10212, 10215, 10214
10092, 10203, 10204, 10207, 10206, 10212, 10213, 10216, 10215
10093, 10208, 10209, 10212, 10211, 10217, 10218, 10221, 10220
10094, 10209, 10210, 10213, 10212, 10218, 10219, 10222, 10221
10095, 10211, 10212, 10215, 10214, 10220, 10221, 10224, 10223
10096, 10212, 10213, 10216, 10215, 10221, 10222, 10225, 10224
10097, 10217, 10218, 10221, 10220, 10226, 10227, 10230, 10229
10098, 10218, 10219, 10222, 10221, 10227, 10228, 10231, 10230
10099, 10220, 10221, 10224, 10223, 10229, 10230, 10233, 10232
10100, 10221, 10222, 10225, 10224, 10230, 10231, 10234, 10233
*Nset, nset=ALL_NODES, generate
10001, 10234, 1
*Elset, elset=BOTTOM_ELEMENTS
10001, 10002, 10003, 10004
*Surface, type=ELEMENT, name=CONTACT_FACE
BOTTOM_ELEMENTS, S1
*Solid Section, elset=ALL_ELEMENTS, material=STEEL
,
*End Part
*Assembly, name=ASSEMBLY
*Instance, name=PLATE-1, part=PLATE
*End Instance
*Instance, name=IMPACTOR-1, part=IMPACTOR
*End Instance
*End Assembly
*Material, name=POLYUREA_RNO
*Density
1120.
*Specific Heat
1500.
*Conductivity
0.19
*Inelastic Heat Fraction
0.9
*Depvar
33,
*User Material, constants=9
2.82e9, 0.286, 0., 0., 0., 0., 0., 3.0e-4
1.0
*Material, name=STEEL
*Density
7850.
*Elastic
210.e9, 0.3
*Surface Interaction, name=HARD_FRICTIONLESS
*Surface Behavior, pressure-overclosure=HARD
*Initial Conditions, type=TEMPERATURE
PLATE-1.ALL_NODES, 300.
*Initial Conditions, type=VELOCITY
IMPACTOR-1.ALL_NODES, 3, -20.
*Boundary
PLATE-1.BACK, 1, 3, 0.
*Step, name=IMPACT, nlgeom=YES
*Dynamic, Explicit
, 3.0e-4
*Bulk Viscosity
0.06, 1.2
*Contact Pair, interaction=HARD_FRICTIONLESS
IMPACTOR-1.CONTACT_FACE, PLATE-1.IMPACT_FACE
*Output, field, time interval=5.0e-6
*Node Output
U, V, A, RF, NT
*Element Output, directions=YES
S, LE, SDV, TEMP, ENER
*Output, history, time interval=1.0e-6
*Energy Output
ALLIE, ALLKE, ALLSE, ALLPD, ALLWK, ETOTAL
*Node Output, nset=PLATE-1.CENTER_FRONT
U3, V3, A3, NT
*Node Output, nset=PLATE-1.BACK
RF3
*End Step
