*Heading
** Reconstructed paper-consistent Taylor impact RNO model
** SI units: m, kg, s, Pa, K
** Projectile: 30 mm high, nominal 10 mm diameter, -100 m/s in direction 3.
*Preprint, echo=NO, model=NO, history=NO, contact=NO
*Part, name=PROJECTILE
*Node
1, -3.535533905933e-03, -3.535533905933e-03, 0.000000000000e+00
2, -2.946278254944e-03, -4.039733214514e-03, 0.000000000000e+00
3, -2.357022603955e-03, -4.409585518441e-03, 0.000000000000e+00
4, -1.767766952966e-03, -4.677071733467e-03, 0.000000000000e+00
5, -1.178511301978e-03, -4.859126579038e-03, 0.000000000000e+00
6, -5.892556509888e-04, -4.965156369922e-03, 0.000000000000e+00
7, 0.000000000000e+00, -5.000000000000e-03, 0.000000000000e+00
8, 5.892556509888e-04, -4.965156369922e-03, 0.000000000000e+00
9, 1.178511301978e-03, -4.859126579038e-03, 0.000000000000e+00
10, 1.767766952966e-03, -4.677071733467e-03, 0.000000000000e+00
11, 2.357022603955e-03, -4.409585518441e-03, 0.000000000000e+00
12, 2.946278254944e-03, -4.039733214514e-03, 0.000000000000e+00
13, 3.535533905933e-03, -3.535533905933e-03, 0.000000000000e+00
14, -3.928064090618e-03, -3.093592167691e-03, 0.000000000000e+00
15, -3.273386742181e-03, -3.534766562699e-03, 0.000000000000e+00
16, -2.618709393745e-03, -3.858387328636e-03, 0.000000000000e+00
17, -1.964032045309e-03, -4.092437766784e-03, 0.000000000000e+00
18, -1.309354696873e-03, -4.251735756658e-03, 0.000000000000e+00
19, -6.546773484363e-04, -4.344511823682e-03, 0.000000000000e+00
20, 0.000000000000e+00, -4.375000000000e-03, 0.000000000000e+00
21, 6.546773484363e-04, -4.344511823682e-03, 0.000000000000e+00
22, 1.309354696873e-03, -4.251735756658e-03, 0.000000000000e+00
23, 1.964032045309e-03, -4.092437766784e-03, 0.000000000000e+00
24, 2.618709393745e-03, -3.858387328636e-03, 0.000000000000e+00
25, 3.273386742181e-03, -3.534766562699e-03, 0.000000000000e+00
26, 3.928064090618e-03, -3.093592167691e-03, 0.000000000000e+00
27, -4.238956239453e-03, -2.651650429450e-03, 0.000000000000e+00
28, -3.532463532878e-03, -3.029799910885e-03, 0.000000000000e+00
29, -2.825970826302e-03, -3.307189138831e-03, 0.000000000000e+00
30, -2.119478119727e-03, -3.507803800101e-03, 0.000000000000e+00
31, -1.412985413151e-03, -3.644344934278e-03, 0.000000000000e+00
32, -7.064927065755e-04, -3.723867277442e-03, 0.000000000000e+00
33, 0.000000000000e+00, -3.750000000000e-03, 0.000000000000e+00
34, 7.064927065755e-04, -3.723867277442e-03, 0.000000000000e+00
35, 1.412985413151e-03, -3.644344934278e-03, 0.000000000000e+00
36, 2.119478119727e-03, -3.507803800101e-03, 0.000000000000e+00
37, 2.825970826302e-03, -3.307189138831e-03, 0.000000000000e+00
38, 3.532463532878e-03, -3.029799910885e-03, 0.000000000000e+00
39, 4.238956239453e-03, -2.651650429450e-03, 0.000000000000e+00
40, -4.485218779502e-03, -2.209708691208e-03, 0.000000000000e+00
41, -3.737682316252e-03, -2.524833259071e-03, 0.000000000000e+00
42, -2.990145853002e-03, -2.755990949026e-03, 0.000000000000e+00
43, -2.242609389751e-03, -2.923169833417e-03, 0.000000000000e+00
44, -1.495072926501e-03, -3.036954111899e-03, 0.000000000000e+00
45, -7.475364632504e-04, -3.103222731201e-03, 0.000000000000e+00
46, 0.000000000000e+00, -3.125000000000e-03, 0.000000000000e+00
47, 7.475364632504e-04, -3.103222731201e-03, 0.000000000000e+00
48, 1.495072926501e-03, -3.036954111899e-03, 0.000000000000e+00
49, 2.242609389751e-03, -2.923169833417e-03, 0.000000000000e+00
50, 2.990145853002e-03, -2.755990949026e-03, 0.000000000000e+00
51, 3.737682316252e-03, -2.524833259071e-03, 0.000000000000e+00
52, 4.485218779502e-03, -2.209708691208e-03, 0.000000000000e+00
53, -4.677071733467e-03, -1.767766952966e-03, 0.000000000000e+00
54, -3.897559777890e-03, -2.019866607257e-03, 0.000000000000e+00
55, -3.118047822312e-03, -2.204792759220e-03, 0.000000000000e+00
56, -2.338535866734e-03, -2.338535866734e-03, 0.000000000000e+00
57, -1.559023911156e-03, -2.429563289519e-03, 0.000000000000e+00
58, -7.795119555779e-04, -2.482578184961e-03, 0.000000000000e+00
59, 0.000000000000e+00, -2.500000000000e-03, 0.000000000000e+00
60, 7.795119555779e-04, -2.482578184961e-03, 0.000000000000e+00
61, 1.559023911156e-03, -2.429563289519e-03, 0.000000000000e+00
62, 2.338535866734e-03, -2.338535866734e-03, 0.000000000000e+00
63, 3.118047822312e-03, -2.204792759220e-03, 0.000000000000e+00
64, 3.897559777890e-03, -2.019866607257e-03, 0.000000000000e+00
65, 4.677071733467e-03, -1.767766952966e-03, 0.000000000000e+00
66, -4.821015193919e-03, -1.325825214725e-03, 0.000000000000e+00
67, -4.017512661599e-03, -1.514899955443e-03, 0.000000000000e+00
68, -3.214010129279e-03, -1.653594569415e-03, 0.000000000000e+00
69, -2.410507596960e-03, -1.753901900050e-03, 0.000000000000e+00
70, -1.607005064640e-03, -1.822172467139e-03, 0.000000000000e+00
71, -8.035025323199e-04, -1.861933638721e-03, 0.000000000000e+00
72, 0.000000000000e+00, -1.875000000000e-03, 0.000000000000e+00
73, 8.035025323199e-04, -1.861933638721e-03, 0.000000000000e+00
74, 1.607005064640e-03, -1.822172467139e-03, 0.000000000000e+00
75, 2.410507596960e-03, -1.753901900050e-03, 0.000000000000e+00
76, 3.214010129279e-03, -1.653594569415e-03, 0.000000000000e+00
77, 4.017512661599e-03, -1.514899955443e-03, 0.000000000000e+00
78, 4.821015193919e-03, -1.325825214725e-03, 0.000000000000e+00
79, -4.921254921257e-03, -8.838834764832e-04, 0.000000000000e+00
80, -4.101045767714e-03, -1.009933303628e-03, 0.000000000000e+00
81, -3.280836614172e-03, -1.102396379610e-03, 0.000000000000e+00
82, -2.460627460629e-03, -1.169267933367e-03, 0.000000000000e+00
83, -1.640418307086e-03, -1.214781644759e-03, 0.000000000000e+00
84, -8.202091535429e-04, -1.241289092481e-03, 0.000000000000e+00
85, 0.000000000000e+00, -1.250000000000e-03, 0.000000000000e+00
86, 8.202091535429e-04, -1.241289092481e-03, 0.000000000000e+00
87, 1.640418307086e-03, -1.214781644759e-03, 0.000000000000e+00
88, 2.460627460629e-03, -1.169267933367e-03, 0.000000000000e+00
89, 3.280836614172e-03, -1.102396379610e-03, 0.000000000000e+00
90, 4.101045767714e-03, -1.009933303628e-03, 0.000000000000e+00
91, 4.921254921257e-03, -8.838834764832e-04, 0.000000000000e+00
92, -4.980430453284e-03, -4.419417382416e-04, 0.000000000000e+00
93, -4.150358711070e-03, -5.049666518142e-04, 0.000000000000e+00
94, -3.320286968856e-03, -5.511981898051e-04, 0.000000000000e+00
95, -2.490215226642e-03, -5.846339666834e-04, 0.000000000000e+00
96, -1.660143484428e-03, -6.073908223797e-04, 0.000000000000e+00
97, -8.300717422140e-04, -6.206445462403e-04, 0.000000000000e+00
98, 0.000000000000e+00, -6.250000000000e-04, 0.000000000000e+00
99, 8.300717422140e-04, -6.206445462403e-04, 0.000000000000e+00
100, 1.660143484428e-03, -6.073908223797e-04, 0.000000000000e+00
101, 2.490215226642e-03, -5.846339666834e-04, 0.000000000000e+00
102, 3.320286968856e-03, -5.511981898051e-04, 0.000000000000e+00
103, 4.150358711070e-03, -5.049666518142e-04, 0.000000000000e+00
104, 4.980430453284e-03, -4.419417382416e-04, 0.000000000000e+00
105, -5.000000000000e-03, 0.000000000000e+00, 0.000000000000e+00
106, -4.166666666667e-03, 0.000000000000e+00, 0.000000000000e+00
107, -3.333333333333e-03, 0.000000000000e+00, 0.000000000000e+00
108, -2.500000000000e-03, 0.000000000000e+00, 0.000000000000e+00
109, -1.666666666667e-03, 0.000000000000e+00, 0.000000000000e+00
110, -8.333333333333e-04, 0.000000000000e+00, 0.000000000000e+00
111, 0.000000000000e+00, 0.000000000000e+00, 0.000000000000e+00
112, 8.333333333333e-04, 0.000000000000e+00, 0.000000000000e+00
113, 1.666666666667e-03, 0.000000000000e+00, 0.000000000000e+00
114, 2.500000000000e-03, 0.000000000000e+00, 0.000000000000e+00
115, 3.333333333333e-03, 0.000000000000e+00, 0.000000000000e+00
116, 4.166666666667e-03, 0.000000000000e+00, 0.000000000000e+00
117, 5.000000000000e-03, 0.000000000000e+00, 0.000000000000e+00
118, -4.980430453284e-03, 4.419417382416e-04, 0.000000000000e+00
119, -4.150358711070e-03, 5.049666518142e-04, 0.000000000000e+00
120, -3.320286968856e-03, 5.511981898051e-04, 0.000000000000e+00
121, -2.490215226642e-03, 5.846339666834e-04, 0.000000000000e+00
122, -1.660143484428e-03, 6.073908223797e-04, 0.000000000000e+00
123, -8.300717422140e-04, 6.206445462403e-04, 0.000000000000e+00
124, 0.000000000000e+00, 6.250000000000e-04, 0.000000000000e+00
125, 8.300717422140e-04, 6.206445462403e-04, 0.000000000000e+00
126, 1.660143484428e-03, 6.073908223797e-04, 0.000000000000e+00
127, 2.490215226642e-03, 5.846339666834e-04, 0.000000000000e+00
128, 3.320286968856e-03, 5.511981898051e-04, 0.000000000000e+00
129, 4.150358711070e-03, 5.049666518142e-04, 0.000000000000e+00
130, 4.980430453284e-03, 4.419417382416e-04, 0.000000000000e+00
131, -4.921254921257e-03, 8.838834764832e-04, 0.000000000000e+00
132, -4.101045767714e-03, 1.009933303628e-03, 0.000000000000e+00
133, -3.280836614172e-03, 1.102396379610e-03, 0.000000000000e+00
134, -2.460627460629e-03, 1.169267933367e-03, 0.000000000000e+00
135, -1.640418307086e-03, 1.214781644759e-03, 0.000000000000e+00
136, -8.202091535429e-04, 1.241289092481e-03, 0.000000000000e+00
137, 0.000000000000e+00, 1.250000000000e-03, 0.000000000000e+00
138, 8.202091535429e-04, 1.241289092481e-03, 0.000000000000e+00
139, 1.640418307086e-03, 1.214781644759e-03, 0.000000000000e+00
140, 2.460627460629e-03, 1.169267933367e-03, 0.000000000000e+00
141, 3.280836614172e-03, 1.102396379610e-03, 0.000000000000e+00
142, 4.101045767714e-03, 1.009933303628e-03, 0.000000000000e+00
143, 4.921254921257e-03, 8.838834764832e-04, 0.000000000000e+00
144, -4.821015193919e-03, 1.325825214725e-03, 0.000000000000e+00
145, -4.017512661599e-03, 1.514899955443e-03, 0.000000000000e+00
146, -3.214010129279e-03, 1.653594569415e-03, 0.000000000000e+00
147, -2.410507596960e-03, 1.753901900050e-03, 0.000000000000e+00
148, -1.607005064640e-03, 1.822172467139e-03, 0.000000000000e+00
149, -8.035025323199e-04, 1.861933638721e-03, 0.000000000000e+00
150, 0.000000000000e+00, 1.875000000000e-03, 0.000000000000e+00
151, 8.035025323199e-04, 1.861933638721e-03, 0.000000000000e+00
152, 1.607005064640e-03, 1.822172467139e-03, 0.000000000000e+00
153, 2.410507596960e-03, 1.753901900050e-03, 0.000000000000e+00
154, 3.214010129279e-03, 1.653594569415e-03, 0.000000000000e+00
155, 4.017512661599e-03, 1.514899955443e-03, 0.000000000000e+00
156, 4.821015193919e-03, 1.325825214725e-03, 0.000000000000e+00
157, -4.677071733467e-03, 1.767766952966e-03, 0.000000000000e+00
158, -3.897559777890e-03, 2.019866607257e-03, 0.000000000000e+00
159, -3.118047822312e-03, 2.204792759220e-03, 0.000000000000e+00
160, -2.338535866734e-03, 2.338535866734e-03, 0.000000000000e+00
161, -1.559023911156e-03, 2.429563289519e-03, 0.000000000000e+00
162, -7.795119555779e-04, 2.482578184961e-03, 0.000000000000e+00
163, 0.000000000000e+00, 2.500000000000e-03, 0.000000000000e+00
164, 7.795119555779e-04, 2.482578184961e-03, 0.000000000000e+00
165, 1.559023911156e-03, 2.429563289519e-03, 0.000000000000e+00
166, 2.338535866734e-03, 2.338535866734e-03, 0.000000000000e+00
167, 3.118047822312e-03, 2.204792759220e-03, 0.000000000000e+00
168, 3.897559777890e-03, 2.019866607257e-03, 0.000000000000e+00
169, 4.677071733467e-03, 1.767766952966e-03, 0.000000000000e+00
170, -4.485218779502e-03, 2.209708691208e-03, 0.000000000000e+00
171, -3.737682316252e-03, 2.524833259071e-03, 0.000000000000e+00
172, -2.990145853002e-03, 2.755990949026e-03, 0.000000000000e+00
173, -2.242609389751e-03, 2.923169833417e-03, 0.000000000000e+00
174, -1.495072926501e-03, 3.036954111899e-03, 0.000000000000e+00
175, -7.475364632504e-04, 3.103222731201e-03, 0.000000000000e+00
176, 0.000000000000e+00, 3.125000000000e-03, 0.000000000000e+00
177, 7.475364632504e-04, 3.103222731201e-03, 0.000000000000e+00
178, 1.495072926501e-03, 3.036954111899e-03, 0.000000000000e+00
179, 2.242609389751e-03, 2.923169833417e-03, 0.000000000000e+00
180, 2.990145853002e-03, 2.755990949026e-03, 0.000000000000e+00
181, 3.737682316252e-03, 2.524833259071e-03, 0.000000000000e+00
182, 4.485218779502e-03, 2.209708691208e-03, 0.000000000000e+00
183, -4.238956239453e-03, 2.651650429450e-03, 0.000000000000e+00
184, -3.532463532878e-03, 3.029799910885e-03, 0.000000000000e+00
185, -2.825970826302e-03, 3.307189138831e-03, 0.000000000000e+00
186, -2.119478119727e-03, 3.507803800101e-03, 0.000000000000e+00
187, -1.412985413151e-03, 3.644344934278e-03, 0.000000000000e+00
188, -7.064927065755e-04, 3.723867277442e-03, 0.000000000000e+00
189, 0.000000000000e+00, 3.750000000000e-03, 0.000000000000e+00
190, 7.064927065755e-04, 3.723867277442e-03, 0.000000000000e+00
191, 1.412985413151e-03, 3.644344934278e-03, 0.000000000000e+00
192, 2.119478119727e-03, 3.507803800101e-03, 0.000000000000e+00
193, 2.825970826302e-03, 3.307189138831e-03, 0.000000000000e+00
194, 3.532463532878e-03, 3.029799910885e-03, 0.000000000000e+00
195, 4.238956239453e-03, 2.651650429450e-03, 0.000000000000e+00
196, -3.928064090618e-03, 3.093592167691e-03, 0.000000000000e+00
197, -3.273386742181e-03, 3.534766562699e-03, 0.000000000000e+00
198, -2.618709393745e-03, 3.858387328636e-03, 0.000000000000e+00
199, -1.964032045309e-03, 4.092437766784e-03, 0.000000000000e+00
200, -1.309354696873e-03, 4.251735756658e-03, 0.000000000000e+00
201, -6.546773484363e-04, 4.344511823682e-03, 0.000000000000e+00
202, 0.000000000000e+00, 4.375000000000e-03, 0.000000000000e+00
203, 6.546773484363e-04, 4.344511823682e-03, 0.000000000000e+00
204, 1.309354696873e-03, 4.251735756658e-03, 0.000000000000e+00
205, 1.964032045309e-03, 4.092437766784e-03, 0.000000000000e+00
206, 2.618709393745e-03, 3.858387328636e-03, 0.000000000000e+00
207, 3.273386742181e-03, 3.534766562699e-03, 0.000000000000e+00
208, 3.928064090618e-03, 3.093592167691e-03, 0.000000000000e+00
209, -3.535533905933e-03, 3.535533905933e-03, 0.000000000000e+00
210, -2.946278254944e-03, 4.039733214514e-03, 0.000000000000e+00
211, -2.357022603955e-03, 4.409585518441e-03, 0.000000000000e+00
212, -1.767766952966e-03, 4.677071733467e-03, 0.000000000000e+00
213, -1.178511301978e-03, 4.859126579038e-03, 0.000000000000e+00
214, -5.892556509888e-04, 4.965156369922e-03, 0.000000000000e+00
215, 0.000000000000e+00, 5.000000000000e-03, 0.000000000000e+00
216, 5.892556509888e-04, 4.965156369922e-03, 0.000000000000e+00
217, 1.178511301978e-03, 4.859126579038e-03, 0.000000000000e+00
218, 1.767766952966e-03, 4.677071733467e-03, 0.000000000000e+00
219, 2.357022603955e-03, 4.409585518441e-03, 0.000000000000e+00
220, 2.946278254944e-03, 4.039733214514e-03, 0.000000000000e+00
221, 3.535533905933e-03, 3.535533905933e-03, 0.000000000000e+00
222, -3.535533905933e-03, -3.535533905933e-03, 1.500000000000e-03
223, -2.946278254944e-03, -4.039733214514e-03, 1.500000000000e-03
224, -2.357022603955e-03, -4.409585518441e-03, 1.500000000000e-03
225, -1.767766952966e-03, -4.677071733467e-03, 1.500000000000e-03
226, -1.178511301978e-03, -4.859126579038e-03, 1.500000000000e-03
227, -5.892556509888e-04, -4.965156369922e-03, 1.500000000000e-03
228, 0.000000000000e+00, -5.000000000000e-03, 1.500000000000e-03
229, 5.892556509888e-04, -4.965156369922e-03, 1.500000000000e-03
230, 1.178511301978e-03, -4.859126579038e-03, 1.500000000000e-03
231, 1.767766952966e-03, -4.677071733467e-03, 1.500000000000e-03
232, 2.357022603955e-03, -4.409585518441e-03, 1.500000000000e-03
233, 2.946278254944e-03, -4.039733214514e-03, 1.500000000000e-03
234, 3.535533905933e-03, -3.535533905933e-03, 1.500000000000e-03
235, -3.928064090618e-03, -3.093592167691e-03, 1.500000000000e-03
236, -3.273386742181e-03, -3.534766562699e-03, 1.500000000000e-03
237, -2.618709393745e-03, -3.858387328636e-03, 1.500000000000e-03
238, -1.964032045309e-03, -4.092437766784e-03, 1.500000000000e-03
239, -1.309354696873e-03, -4.251735756658e-03, 1.500000000000e-03
240, -6.546773484363e-04, -4.344511823682e-03, 1.500000000000e-03
241, 0.000000000000e+00, -4.375000000000e-03, 1.500000000000e-03
242, 6.546773484363e-04, -4.344511823682e-03, 1.500000000000e-03
243, 1.309354696873e-03, -4.251735756658e-03, 1.500000000000e-03
244, 1.964032045309e-03, -4.092437766784e-03, 1.500000000000e-03
245, 2.618709393745e-03, -3.858387328636e-03, 1.500000000000e-03
246, 3.273386742181e-03, -3.534766562699e-03, 1.500000000000e-03
247, 3.928064090618e-03, -3.093592167691e-03, 1.500000000000e-03
248, -4.238956239453e-03, -2.651650429450e-03, 1.500000000000e-03
249, -3.532463532878e-03, -3.029799910885e-03, 1.500000000000e-03
250, -2.825970826302e-03, -3.307189138831e-03, 1.500000000000e-03
251, -2.119478119727e-03, -3.507803800101e-03, 1.500000000000e-03
252, -1.412985413151e-03, -3.644344934278e-03, 1.500000000000e-03
253, -7.064927065755e-04, -3.723867277442e-03, 1.500000000000e-03
254, 0.000000000000e+00, -3.750000000000e-03, 1.500000000000e-03
255, 7.064927065755e-04, -3.723867277442e-03, 1.500000000000e-03
256, 1.412985413151e-03, -3.644344934278e-03, 1.500000000000e-03
257, 2.119478119727e-03, -3.507803800101e-03, 1.500000000000e-03
258, 2.825970826302e-03, -3.307189138831e-03, 1.500000000000e-03
259, 3.532463532878e-03, -3.029799910885e-03, 1.500000000000e-03
260, 4.238956239453e-03, -2.651650429450e-03, 1.500000000000e-03
261, -4.485218779502e-03, -2.209708691208e-03, 1.500000000000e-03
262, -3.737682316252e-03, -2.524833259071e-03, 1.500000000000e-03
263, -2.990145853002e-03, -2.755990949026e-03, 1.500000000000e-03
264, -2.242609389751e-03, -2.923169833417e-03, 1.500000000000e-03
265, -1.495072926501e-03, -3.036954111899e-03, 1.500000000000e-03
266, -7.475364632504e-04, -3.103222731201e-03, 1.500000000000e-03
267, 0.000000000000e+00, -3.125000000000e-03, 1.500000000000e-03
268, 7.475364632504e-04, -3.103222731201e-03, 1.500000000000e-03
269, 1.495072926501e-03, -3.036954111899e-03, 1.500000000000e-03
270, 2.242609389751e-03, -2.923169833417e-03, 1.500000000000e-03
271, 2.990145853002e-03, -2.755990949026e-03, 1.500000000000e-03
272, 3.737682316252e-03, -2.524833259071e-03, 1.500000000000e-03
273, 4.485218779502e-03, -2.209708691208e-03, 1.500000000000e-03
274, -4.677071733467e-03, -1.767766952966e-03, 1.500000000000e-03
275, -3.897559777890e-03, -2.019866607257e-03, 1.500000000000e-03
276, -3.118047822312e-03, -2.204792759220e-03, 1.500000000000e-03
277, -2.338535866734e-03, -2.338535866734e-03, 1.500000000000e-03
278, -1.559023911156e-03, -2.429563289519e-03, 1.500000000000e-03
279, -7.795119555779e-04, -2.482578184961e-03, 1.500000000000e-03
280, 0.000000000000e+00, -2.500000000000e-03, 1.500000000000e-03
281, 7.795119555779e-04, -2.482578184961e-03, 1.500000000000e-03
282, 1.559023911156e-03, -2.429563289519e-03, 1.500000000000e-03
283, 2.338535866734e-03, -2.338535866734e-03, 1.500000000000e-03
284, 3.118047822312e-03, -2.204792759220e-03, 1.500000000000e-03
285, 3.897559777890e-03, -2.019866607257e-03, 1.500000000000e-03
286, 4.677071733467e-03, -1.767766952966e-03, 1.500000000000e-03
287, -4.821015193919e-03, -1.325825214725e-03, 1.500000000000e-03
288, -4.017512661599e-03, -1.514899955443e-03, 1.500000000000e-03
289, -3.214010129279e-03, -1.653594569415e-03, 1.500000000000e-03
290, -2.410507596960e-03, -1.753901900050e-03, 1.500000000000e-03
291, -1.607005064640e-03, -1.822172467139e-03, 1.500000000000e-03
292, -8.035025323199e-04, -1.861933638721e-03, 1.500000000000e-03
293, 0.000000000000e+00, -1.875000000000e-03, 1.500000000000e-03
294, 8.035025323199e-04, -1.861933638721e-03, 1.500000000000e-03
295, 1.607005064640e-03, -1.822172467139e-03, 1.500000000000e-03
296, 2.410507596960e-03, -1.753901900050e-03, 1.500000000000e-03
297, 3.214010129279e-03, -1.653594569415e-03, 1.500000000000e-03
298, 4.017512661599e-03, -1.514899955443e-03, 1.500000000000e-03
299, 4.821015193919e-03, -1.325825214725e-03, 1.500000000000e-03
300, -4.921254921257e-03, -8.838834764832e-04, 1.500000000000e-03
301, -4.101045767714e-03, -1.009933303628e-03, 1.500000000000e-03
302, -3.280836614172e-03, -1.102396379610e-03, 1.500000000000e-03
303, -2.460627460629e-03, -1.169267933367e-03, 1.500000000000e-03
304, -1.640418307086e-03, -1.214781644759e-03, 1.500000000000e-03
305, -8.202091535429e-04, -1.241289092481e-03, 1.500000000000e-03
306, 0.000000000000e+00, -1.250000000000e-03, 1.500000000000e-03
307, 8.202091535429e-04, -1.241289092481e-03, 1.500000000000e-03
308, 1.640418307086e-03, -1.214781644759e-03, 1.500000000000e-03
309, 2.460627460629e-03, -1.169267933367e-03, 1.500000000000e-03
310, 3.280836614172e-03, -1.102396379610e-03, 1.500000000000e-03
311, 4.101045767714e-03, -1.009933303628e-03, 1.500000000000e-03
312, 4.921254921257e-03, -8.838834764832e-04, 1.500000000000e-03
313, -4.980430453284e-03, -4.419417382416e-04, 1.500000000000e-03
314, -4.150358711070e-03, -5.049666518142e-04, 1.500000000000e-03
315, -3.320286968856e-03, -5.511981898051e-04, 1.500000000000e-03
316, -2.490215226642e-03, -5.846339666834e-04, 1.500000000000e-03
317, -1.660143484428e-03, -6.073908223797e-04, 1.500000000000e-03
318, -8.300717422140e-04, -6.206445462403e-04, 1.500000000000e-03
319, 0.000000000000e+00, -6.250000000000e-04, 1.500000000000e-03
320, 8.300717422140e-04, -6.206445462403e-04, 1.500000000000e-03
321, 1.660143484428e-03, -6.073908223797e-04, 1.500000000000e-03
322, 2.490215226642e-03, -5.846339666834e-04, 1.500000000000e-03
323, 3.320286968856e-03, -5.511981898051e-04, 1.500000000000e-03
324, 4.150358711070e-03, -5.049666518142e-04, 1.500000000000e-03
325, 4.980430453284e-03, -4.419417382416e-04, 1.500000000000e-03
326, -5.000000000000e-03, 0.000000000000e+00, 1.500000000000e-03
327, -4.166666666667e-03, 0.000000000000e+00, 1.500000000000e-03
328, -3.333333333333e-03, 0.000000000000e+00, 1.500000000000e-03
329, -2.500000000000e-03, 0.000000000000e+00, 1.500000000000e-03
330, -1.666666666667e-03, 0.000000000000e+00, 1.500000000000e-03
331, -8.333333333333e-04, 0.000000000000e+00, 1.500000000000e-03
332, 0.000000000000e+00, 0.000000000000e+00, 1.500000000000e-03
333, 8.333333333333e-04, 0.000000000000e+00, 1.500000000000e-03
334, 1.666666666667e-03, 0.000000000000e+00, 1.500000000000e-03
335, 2.500000000000e-03, 0.000000000000e+00, 1.500000000000e-03
336, 3.333333333333e-03, 0.000000000000e+00, 1.500000000000e-03
337, 4.166666666667e-03, 0.000000000000e+00, 1.500000000000e-03
338, 5.000000000000e-03, 0.000000000000e+00, 1.500000000000e-03
339, -4.980430453284e-03, 4.419417382416e-04, 1.500000000000e-03
340, -4.150358711070e-03, 5.049666518142e-04, 1.500000000000e-03
341, -3.320286968856e-03, 5.511981898051e-04, 1.500000000000e-03
342, -2.490215226642e-03, 5.846339666834e-04, 1.500000000000e-03
343, -1.660143484428e-03, 6.073908223797e-04, 1.500000000000e-03
344, -8.300717422140e-04, 6.206445462403e-04, 1.500000000000e-03
345, 0.000000000000e+00, 6.250000000000e-04, 1.500000000000e-03
346, 8.300717422140e-04, 6.206445462403e-04, 1.500000000000e-03
347, 1.660143484428e-03, 6.073908223797e-04, 1.500000000000e-03
348, 2.490215226642e-03, 5.846339666834e-04, 1.500000000000e-03
349, 3.320286968856e-03, 5.511981898051e-04, 1.500000000000e-03
350, 4.150358711070e-03, 5.049666518142e-04, 1.500000000000e-03
351, 4.980430453284e-03, 4.419417382416e-04, 1.500000000000e-03
352, -4.921254921257e-03, 8.838834764832e-04, 1.500000000000e-03
353, -4.101045767714e-03, 1.009933303628e-03, 1.500000000000e-03
354, -3.280836614172e-03, 1.102396379610e-03, 1.500000000000e-03
355, -2.460627460629e-03, 1.169267933367e-03, 1.500000000000e-03
356, -1.640418307086e-03, 1.214781644759e-03, 1.500000000000e-03
357, -8.202091535429e-04, 1.241289092481e-03, 1.500000000000e-03
358, 0.000000000000e+00, 1.250000000000e-03, 1.500000000000e-03
359, 8.202091535429e-04, 1.241289092481e-03, 1.500000000000e-03
360, 1.640418307086e-03, 1.214781644759e-03, 1.500000000000e-03
361, 2.460627460629e-03, 1.169267933367e-03, 1.500000000000e-03
362, 3.280836614172e-03, 1.102396379610e-03, 1.500000000000e-03
363, 4.101045767714e-03, 1.009933303628e-03, 1.500000000000e-03
364, 4.921254921257e-03, 8.838834764832e-04, 1.500000000000e-03
365, -4.821015193919e-03, 1.325825214725e-03, 1.500000000000e-03
366, -4.017512661599e-03, 1.514899955443e-03, 1.500000000000e-03
367, -3.214010129279e-03, 1.653594569415e-03, 1.500000000000e-03
368, -2.410507596960e-03, 1.753901900050e-03, 1.500000000000e-03
369, -1.607005064640e-03, 1.822172467139e-03, 1.500000000000e-03
370, -8.035025323199e-04, 1.861933638721e-03, 1.500000000000e-03
371, 0.000000000000e+00, 1.875000000000e-03, 1.500000000000e-03
372, 8.035025323199e-04, 1.861933638721e-03, 1.500000000000e-03
373, 1.607005064640e-03, 1.822172467139e-03, 1.500000000000e-03
374, 2.410507596960e-03, 1.753901900050e-03, 1.500000000000e-03
375, 3.214010129279e-03, 1.653594569415e-03, 1.500000000000e-03
376, 4.017512661599e-03, 1.514899955443e-03, 1.500000000000e-03
377, 4.821015193919e-03, 1.325825214725e-03, 1.500000000000e-03
378, -4.677071733467e-03, 1.767766952966e-03, 1.500000000000e-03
379, -3.897559777890e-03, 2.019866607257e-03, 1.500000000000e-03
380, -3.118047822312e-03, 2.204792759220e-03, 1.500000000000e-03
381, -2.338535866734e-03, 2.338535866734e-03, 1.500000000000e-03
382, -1.559023911156e-03, 2.429563289519e-03, 1.500000000000e-03
383, -7.795119555779e-04, 2.482578184961e-03, 1.500000000000e-03
384, 0.000000000000e+00, 2.500000000000e-03, 1.500000000000e-03
385, 7.795119555779e-04, 2.482578184961e-03, 1.500000000000e-03
386, 1.559023911156e-03, 2.429563289519e-03, 1.500000000000e-03
387, 2.338535866734e-03, 2.338535866734e-03, 1.500000000000e-03
388, 3.118047822312e-03, 2.204792759220e-03, 1.500000000000e-03
389, 3.897559777890e-03, 2.019866607257e-03, 1.500000000000e-03
390, 4.677071733467e-03, 1.767766952966e-03, 1.500000000000e-03
391, -4.485218779502e-03, 2.209708691208e-03, 1.500000000000e-03
392, -3.737682316252e-03, 2.524833259071e-03, 1.500000000000e-03
393, -2.990145853002e-03, 2.755990949026e-03, 1.500000000000e-03
394, -2.242609389751e-03, 2.923169833417e-03, 1.500000000000e-03
395, -1.495072926501e-03, 3.036954111899e-03, 1.500000000000e-03
396, -7.475364632504e-04, 3.103222731201e-03, 1.500000000000e-03
397, 0.000000000000e+00, 3.125000000000e-03, 1.500000000000e-03
398, 7.475364632504e-04, 3.103222731201e-03, 1.500000000000e-03
399, 1.495072926501e-03, 3.036954111899e-03, 1.500000000000e-03
400, 2.242609389751e-03, 2.923169833417e-03, 1.500000000000e-03
401, 2.990145853002e-03, 2.755990949026e-03, 1.500000000000e-03
402, 3.737682316252e-03, 2.524833259071e-03, 1.500000000000e-03
403, 4.485218779502e-03, 2.209708691208e-03, 1.500000000000e-03
404, -4.238956239453e-03, 2.651650429450e-03, 1.500000000000e-03
405, -3.532463532878e-03, 3.029799910885e-03, 1.500000000000e-03
406, -2.825970826302e-03, 3.307189138831e-03, 1.500000000000e-03
407, -2.119478119727e-03, 3.507803800101e-03, 1.500000000000e-03
408, -1.412985413151e-03, 3.644344934278e-03, 1.500000000000e-03
409, -7.064927065755e-04, 3.723867277442e-03, 1.500000000000e-03
410, 0.000000000000e+00, 3.750000000000e-03, 1.500000000000e-03
411, 7.064927065755e-04, 3.723867277442e-03, 1.500000000000e-03
412, 1.412985413151e-03, 3.644344934278e-03, 1.500000000000e-03
413, 2.119478119727e-03, 3.507803800101e-03, 1.500000000000e-03
414, 2.825970826302e-03, 3.307189138831e-03, 1.500000000000e-03
415, 3.532463532878e-03, 3.029799910885e-03, 1.500000000000e-03
416, 4.238956239453e-03, 2.651650429450e-03, 1.500000000000e-03
417, -3.928064090618e-03, 3.093592167691e-03, 1.500000000000e-03
418, -3.273386742181e-03, 3.534766562699e-03, 1.500000000000e-03
419, -2.618709393745e-03, 3.858387328636e-03, 1.500000000000e-03
420, -1.964032045309e-03, 4.092437766784e-03, 1.500000000000e-03
421, -1.309354696873e-03, 4.251735756658e-03, 1.500000000000e-03
422, -6.546773484363e-04, 4.344511823682e-03, 1.500000000000e-03
423, 0.000000000000e+00, 4.375000000000e-03, 1.500000000000e-03
424, 6.546773484363e-04, 4.344511823682e-03, 1.500000000000e-03
425, 1.309354696873e-03, 4.251735756658e-03, 1.500000000000e-03
426, 1.964032045309e-03, 4.092437766784e-03, 1.500000000000e-03
427, 2.618709393745e-03, 3.858387328636e-03, 1.500000000000e-03
428, 3.273386742181e-03, 3.534766562699e-03, 1.500000000000e-03
429, 3.928064090618e-03, 3.093592167691e-03, 1.500000000000e-03
430, -3.535533905933e-03, 3.535533905933e-03, 1.500000000000e-03
431, -2.946278254944e-03, 4.039733214514e-03, 1.500000000000e-03
432, -2.357022603955e-03, 4.409585518441e-03, 1.500000000000e-03
433, -1.767766952966e-03, 4.677071733467e-03, 1.500000000000e-03
434, -1.178511301978e-03, 4.859126579038e-03, 1.500000000000e-03
435, -5.892556509888e-04, 4.965156369922e-03, 1.500000000000e-03
436, 0.000000000000e+00, 5.000000000000e-03, 1.500000000000e-03
437, 5.892556509888e-04, 4.965156369922e-03, 1.500000000000e-03
438, 1.178511301978e-03, 4.859126579038e-03, 1.500000000000e-03
439, 1.767766952966e-03, 4.677071733467e-03, 1.500000000000e-03
440, 2.357022603955e-03, 4.409585518441e-03, 1.500000000000e-03
441, 2.946278254944e-03, 4.039733214514e-03, 1.500000000000e-03
442, 3.535533905933e-03, 3.535533905933e-03, 1.500000000000e-03
443, -3.535533905933e-03, -3.535533905933e-03, 3.000000000000e-03
444, -2.946278254944e-03, -4.039733214514e-03, 3.000000000000e-03
445, -2.357022603955e-03, -4.409585518441e-03, 3.000000000000e-03
446, -1.767766952966e-03, -4.677071733467e-03, 3.000000000000e-03
447, -1.178511301978e-03, -4.859126579038e-03, 3.000000000000e-03
448, -5.892556509888e-04, -4.965156369922e-03, 3.000000000000e-03
449, 0.000000000000e+00, -5.000000000000e-03, 3.000000000000e-03
450, 5.892556509888e-04, -4.965156369922e-03, 3.000000000000e-03
451, 1.178511301978e-03, -4.859126579038e-03, 3.000000000000e-03
452, 1.767766952966e-03, -4.677071733467e-03, 3.000000000000e-03
453, 2.357022603955e-03, -4.409585518441e-03, 3.000000000000e-03
454, 2.946278254944e-03, -4.039733214514e-03, 3.000000000000e-03
455, 3.535533905933e-03, -3.535533905933e-03, 3.000000000000e-03
456, -3.928064090618e-03, -3.093592167691e-03, 3.000000000000e-03
457, -3.273386742181e-03, -3.534766562699e-03, 3.000000000000e-03
458, -2.618709393745e-03, -3.858387328636e-03, 3.000000000000e-03
459, -1.964032045309e-03, -4.092437766784e-03, 3.000000000000e-03
460, -1.309354696873e-03, -4.251735756658e-03, 3.000000000000e-03
461, -6.546773484363e-04, -4.344511823682e-03, 3.000000000000e-03
462, 0.000000000000e+00, -4.375000000000e-03, 3.000000000000e-03
463, 6.546773484363e-04, -4.344511823682e-03, 3.000000000000e-03
464, 1.309354696873e-03, -4.251735756658e-03, 3.000000000000e-03
465, 1.964032045309e-03, -4.092437766784e-03, 3.000000000000e-03
466, 2.618709393745e-03, -3.858387328636e-03, 3.000000000000e-03
467, 3.273386742181e-03, -3.534766562699e-03, 3.000000000000e-03
468, 3.928064090618e-03, -3.093592167691e-03, 3.000000000000e-03
469, -4.238956239453e-03, -2.651650429450e-03, 3.000000000000e-03
470, -3.532463532878e-03, -3.029799910885e-03, 3.000000000000e-03
471, -2.825970826302e-03, -3.307189138831e-03, 3.000000000000e-03
472, -2.119478119727e-03, -3.507803800101e-03, 3.000000000000e-03
473, -1.412985413151e-03, -3.644344934278e-03, 3.000000000000e-03
474, -7.064927065755e-04, -3.723867277442e-03, 3.000000000000e-03
475, 0.000000000000e+00, -3.750000000000e-03, 3.000000000000e-03
476, 7.064927065755e-04, -3.723867277442e-03, 3.000000000000e-03
477, 1.412985413151e-03, -3.644344934278e-03, 3.000000000000e-03
478, 2.119478119727e-03, -3.507803800101e-03, 3.000000000000e-03
479, 2.825970826302e-03, -3.307189138831e-03, 3.000000000000e-03
480, 3.532463532878e-03, -3.029799910885e-03, 3.000000000000e-03
481, 4.238956239453e-03, -2.651650429450e-03, 3.000000000000e-03
482, -4.485218779502e-03, -2.209708691208e-03, 3.000000000000e-03
483, -3.737682316252e-03, -2.524833259071e-03, 3.000000000000e-03
484, -2.990145853002e-03, -2.755990949026e-03, 3.000000000000e-03
485, -2.242609389751e-03, -2.923169833417e-03, 3.000000000000e-03
486, -1.495072926501e-03, -3.036954111899e-03, 3.000000000000e-03
487, -7.475364632504e-04, -3.103222731201e-03, 3.000000000000e-03
488, 0.000000000000e+00, -3.125000000000e-03, 3.000000000000e-03
489, 7.475364632504e-04, -3.103222731201e-03, 3.000000000000e-03
490, 1.495072926501e-03, -3.036954111899e-03, 3.000000000000e-03
491, 2.242609389751e-03, -2.923169833417e-03, 3.000000000000e-03
492, 2.990145853002e-03, -2.755990949026e-03, 3.000000000000e-03
493, 3.737682316252e-03, -2.524833259071e-03, 3.000000000000e-03
494, 4.485218779502e-03, -2.209708691208e-03, 3.000000000000e-03
495, -4.677071733467e-03, -1.767766952966e-03, 3.000000000000e-03
496, -3.897559777890e-03, -2.019866607257e-03, 3.000000000000e-03
497, -3.118047822312e-03, -2.204792759220e-03, 3.000000000000e-03
498, -2.338535866734e-03, -2.338535866734e-03, 3.000000000000e-03
499, -1.559023911156e-03, -2.429563289519e-03, 3.000000000000e-03
500, -7.795119555779e-04, -2.482578184961e-03, 3.000000000000e-03
501, 0.000000000000e+00, -2.500000000000e-03, 3.000000000000e-03
502, 7.795119555779e-04, -2.482578184961e-03, 3.000000000000e-03
503, 1.559023911156e-03, -2.429563289519e-03, 3.000000000000e-03
504, 2.338535866734e-03, -2.338535866734e-03, 3.000000000000e-03
505, 3.118047822312e-03, -2.204792759220e-03, 3.000000000000e-03
506, 3.897559777890e-03, -2.019866607257e-03, 3.000000000000e-03
507, 4.677071733467e-03, -1.767766952966e-03, 3.000000000000e-03
508, -4.821015193919e-03, -1.325825214725e-03, 3.000000000000e-03
509, -4.017512661599e-03, -1.514899955443e-03, 3.000000000000e-03
510, -3.214010129279e-03, -1.653594569415e-03, 3.000000000000e-03
511, -2.410507596960e-03, -1.753901900050e-03, 3.000000000000e-03
512, -1.607005064640e-03, -1.822172467139e-03, 3.000000000000e-03
513, -8.035025323199e-04, -1.861933638721e-03, 3.000000000000e-03
514, 0.000000000000e+00, -1.875000000000e-03, 3.000000000000e-03
515, 8.035025323199e-04, -1.861933638721e-03, 3.000000000000e-03
516, 1.607005064640e-03, -1.822172467139e-03, 3.000000000000e-03
517, 2.410507596960e-03, -1.753901900050e-03, 3.000000000000e-03
518, 3.214010129279e-03, -1.653594569415e-03, 3.000000000000e-03
519, 4.017512661599e-03, -1.514899955443e-03, 3.000000000000e-03
520, 4.821015193919e-03, -1.325825214725e-03, 3.000000000000e-03
521, -4.921254921257e-03, -8.838834764832e-04, 3.000000000000e-03
522, -4.101045767714e-03, -1.009933303628e-03, 3.000000000000e-03
523, -3.280836614172e-03, -1.102396379610e-03, 3.000000000000e-03
524, -2.460627460629e-03, -1.169267933367e-03, 3.000000000000e-03
525, -1.640418307086e-03, -1.214781644759e-03, 3.000000000000e-03
526, -8.202091535429e-04, -1.241289092481e-03, 3.000000000000e-03
527, 0.000000000000e+00, -1.250000000000e-03, 3.000000000000e-03
528, 8.202091535429e-04, -1.241289092481e-03, 3.000000000000e-03
529, 1.640418307086e-03, -1.214781644759e-03, 3.000000000000e-03
530, 2.460627460629e-03, -1.169267933367e-03, 3.000000000000e-03
531, 3.280836614172e-03, -1.102396379610e-03, 3.000000000000e-03
532, 4.101045767714e-03, -1.009933303628e-03, 3.000000000000e-03
533, 4.921254921257e-03, -8.838834764832e-04, 3.000000000000e-03
534, -4.980430453284e-03, -4.419417382416e-04, 3.000000000000e-03
535, -4.150358711070e-03, -5.049666518142e-04, 3.000000000000e-03
536, -3.320286968856e-03, -5.511981898051e-04, 3.000000000000e-03
537, -2.490215226642e-03, -5.846339666834e-04, 3.000000000000e-03
538, -1.660143484428e-03, -6.073908223797e-04, 3.000000000000e-03
539, -8.300717422140e-04, -6.206445462403e-04, 3.000000000000e-03
540, 0.000000000000e+00, -6.250000000000e-04, 3.000000000000e-03
541, 8.300717422140e-04, -6.206445462403e-04, 3.000000000000e-03
542, 1.660143484428e-03, -6.073908223797e-04, 3.000000000000e-03
543, 2.490215226642e-03, -5.846339666834e-04, 3.000000000000e-03
544, 3.320286968856e-03, -5.511981898051e-04, 3.000000000000e-03
545, 4.150358711070e-03, -5.049666518142e-04, 3.000000000000e-03
546, 4.980430453284e-03, -4.419417382416e-04, 3.000000000000e-03
547, -5.000000000000e-03, 0.000000000000e+00, 3.000000000000e-03
548, -4.166666666667e-03, 0.000000000000e+00, 3.000000000000e-03
549, -3.333333333333e-03, 0.000000000000e+00, 3.000000000000e-03
550, -2.500000000000e-03, 0.000000000000e+00, 3.000000000000e-03
551, -1.666666666667e-03, 0.000000000000e+00, 3.000000000000e-03
552, -8.333333333333e-04, 0.000000000000e+00, 3.000000000000e-03
553, 0.000000000000e+00, 0.000000000000e+00, 3.000000000000e-03
554, 8.333333333333e-04, 0.000000000000e+00, 3.000000000000e-03
555, 1.666666666667e-03, 0.000000000000e+00, 3.000000000000e-03
556, 2.500000000000e-03, 0.000000000000e+00, 3.000000000000e-03
557, 3.333333333333e-03, 0.000000000000e+00, 3.000000000000e-03
558, 4.166666666667e-03, 0.000000000000e+00, 3.000000000000e-03
559, 5.000000000000e-03, 0.000000000000e+00, 3.000000000000e-03
560, -4.980430453284e-03, 4.419417382416e-04, 3.000000000000e-03
561, -4.150358711070e-03, 5.049666518142e-04, 3.000000000000e-03
562, -3.320286968856e-03, 5.511981898051e-04, 3.000000000000e-03
563, -2.490215226642e-03, 5.846339666834e-04, 3.000000000000e-03
564, -1.660143484428e-03, 6.073908223797e-04, 3.000000000000e-03
565, -8.300717422140e-04, 6.206445462403e-04, 3.000000000000e-03
566, 0.000000000000e+00, 6.250000000000e-04, 3.000000000000e-03
567, 8.300717422140e-04, 6.206445462403e-04, 3.000000000000e-03
568, 1.660143484428e-03, 6.073908223797e-04, 3.000000000000e-03
569, 2.490215226642e-03, 5.846339666834e-04, 3.000000000000e-03
570, 3.320286968856e-03, 5.511981898051e-04, 3.000000000000e-03
571, 4.150358711070e-03, 5.049666518142e-04, 3.000000000000e-03
572, 4.980430453284e-03, 4.419417382416e-04, 3.000000000000e-03
573, -4.921254921257e-03, 8.838834764832e-04, 3.000000000000e-03
574, -4.101045767714e-03, 1.009933303628e-03, 3.000000000000e-03
575, -3.280836614172e-03, 1.102396379610e-03, 3.000000000000e-03
576, -2.460627460629e-03, 1.169267933367e-03, 3.000000000000e-03
577, -1.640418307086e-03, 1.214781644759e-03, 3.000000000000e-03
578, -8.202091535429e-04, 1.241289092481e-03, 3.000000000000e-03
579, 0.000000000000e+00, 1.250000000000e-03, 3.000000000000e-03
580, 8.202091535429e-04, 1.241289092481e-03, 3.000000000000e-03
581, 1.640418307086e-03, 1.214781644759e-03, 3.000000000000e-03
582, 2.460627460629e-03, 1.169267933367e-03, 3.000000000000e-03
583, 3.280836614172e-03, 1.102396379610e-03, 3.000000000000e-03
584, 4.101045767714e-03, 1.009933303628e-03, 3.000000000000e-03
585, 4.921254921257e-03, 8.838834764832e-04, 3.000000000000e-03
586, -4.821015193919e-03, 1.325825214725e-03, 3.000000000000e-03
587, -4.017512661599e-03, 1.514899955443e-03, 3.000000000000e-03
588, -3.214010129279e-03, 1.653594569415e-03, 3.000000000000e-03
589, -2.410507596960e-03, 1.753901900050e-03, 3.000000000000e-03
590, -1.607005064640e-03, 1.822172467139e-03, 3.000000000000e-03
591, -8.035025323199e-04, 1.861933638721e-03, 3.000000000000e-03
592, 0.000000000000e+00, 1.875000000000e-03, 3.000000000000e-03
593, 8.035025323199e-04, 1.861933638721e-03, 3.000000000000e-03
594, 1.607005064640e-03, 1.822172467139e-03, 3.000000000000e-03
595, 2.410507596960e-03, 1.753901900050e-03, 3.000000000000e-03
596, 3.214010129279e-03, 1.653594569415e-03, 3.000000000000e-03
597, 4.017512661599e-03, 1.514899955443e-03, 3.000000000000e-03
598, 4.821015193919e-03, 1.325825214725e-03, 3.000000000000e-03
599, -4.677071733467e-03, 1.767766952966e-03, 3.000000000000e-03
600, -3.897559777890e-03, 2.019866607257e-03, 3.000000000000e-03
601, -3.118047822312e-03, 2.204792759220e-03, 3.000000000000e-03
602, -2.338535866734e-03, 2.338535866734e-03, 3.000000000000e-03
603, -1.559023911156e-03, 2.429563289519e-03, 3.000000000000e-03
604, -7.795119555779e-04, 2.482578184961e-03, 3.000000000000e-03
605, 0.000000000000e+00, 2.500000000000e-03, 3.000000000000e-03
606, 7.795119555779e-04, 2.482578184961e-03, 3.000000000000e-03
607, 1.559023911156e-03, 2.429563289519e-03, 3.000000000000e-03
608, 2.338535866734e-03, 2.338535866734e-03, 3.000000000000e-03
609, 3.118047822312e-03, 2.204792759220e-03, 3.000000000000e-03
610, 3.897559777890e-03, 2.019866607257e-03, 3.000000000000e-03
611, 4.677071733467e-03, 1.767766952966e-03, 3.000000000000e-03
612, -4.485218779502e-03, 2.209708691208e-03, 3.000000000000e-03
613, -3.737682316252e-03, 2.524833259071e-03, 3.000000000000e-03
614, -2.990145853002e-03, 2.755990949026e-03, 3.000000000000e-03
615, -2.242609389751e-03, 2.923169833417e-03, 3.000000000000e-03
616, -1.495072926501e-03, 3.036954111899e-03, 3.000000000000e-03
617, -7.475364632504e-04, 3.103222731201e-03, 3.000000000000e-03
618, 0.000000000000e+00, 3.125000000000e-03, 3.000000000000e-03
619, 7.475364632504e-04, 3.103222731201e-03, 3.000000000000e-03
620, 1.495072926501e-03, 3.036954111899e-03, 3.000000000000e-03
621, 2.242609389751e-03, 2.923169833417e-03, 3.000000000000e-03
622, 2.990145853002e-03, 2.755990949026e-03, 3.000000000000e-03
623, 3.737682316252e-03, 2.524833259071e-03, 3.000000000000e-03
624, 4.485218779502e-03, 2.209708691208e-03, 3.000000000000e-03
625, -4.238956239453e-03, 2.651650429450e-03, 3.000000000000e-03
626, -3.532463532878e-03, 3.029799910885e-03, 3.000000000000e-03
627, -2.825970826302e-03, 3.307189138831e-03, 3.000000000000e-03
628, -2.119478119727e-03, 3.507803800101e-03, 3.000000000000e-03
629, -1.412985413151e-03, 3.644344934278e-03, 3.000000000000e-03
630, -7.064927065755e-04, 3.723867277442e-03, 3.000000000000e-03
631, 0.000000000000e+00, 3.750000000000e-03, 3.000000000000e-03
632, 7.064927065755e-04, 3.723867277442e-03, 3.000000000000e-03
633, 1.412985413151e-03, 3.644344934278e-03, 3.000000000000e-03
634, 2.119478119727e-03, 3.507803800101e-03, 3.000000000000e-03
635, 2.825970826302e-03, 3.307189138831e-03, 3.000000000000e-03
636, 3.532463532878e-03, 3.029799910885e-03, 3.000000000000e-03
637, 4.238956239453e-03, 2.651650429450e-03, 3.000000000000e-03
638, -3.928064090618e-03, 3.093592167691e-03, 3.000000000000e-03
639, -3.273386742181e-03, 3.534766562699e-03, 3.000000000000e-03
640, -2.618709393745e-03, 3.858387328636e-03, 3.000000000000e-03
641, -1.964032045309e-03, 4.092437766784e-03, 3.000000000000e-03
642, -1.309354696873e-03, 4.251735756658e-03, 3.000000000000e-03
643, -6.546773484363e-04, 4.344511823682e-03, 3.000000000000e-03
644, 0.000000000000e+00, 4.375000000000e-03, 3.000000000000e-03
645, 6.546773484363e-04, 4.344511823682e-03, 3.000000000000e-03
646, 1.309354696873e-03, 4.251735756658e-03, 3.000000000000e-03
647, 1.964032045309e-03, 4.092437766784e-03, 3.000000000000e-03
648, 2.618709393745e-03, 3.858387328636e-03, 3.000000000000e-03
649, 3.273386742181e-03, 3.534766562699e-03, 3.000000000000e-03
650, 3.928064090618e-03, 3.093592167691e-03, 3.000000000000e-03
651, -3.535533905933e-03, 3.535533905933e-03, 3.000000000000e-03
652, -2.946278254944e-03, 4.039733214514e-03, 3.000000000000e-03
653, -2.357022603955e-03, 4.409585518441e-03, 3.000000000000e-03
654, -1.767766952966e-03, 4.677071733467e-03, 3.000000000000e-03
655, -1.178511301978e-03, 4.859126579038e-03, 3.000000000000e-03
656, -5.892556509888e-04, 4.965156369922e-03, 3.000000000000e-03
657, 0.000000000000e+00, 5.000000000000e-03, 3.000000000000e-03
658, 5.892556509888e-04, 4.965156369922e-03, 3.000000000000e-03
659, 1.178511301978e-03, 4.859126579038e-03, 3.000000000000e-03
660, 1.767766952966e-03, 4.677071733467e-03, 3.000000000000e-03
661, 2.357022603955e-03, 4.409585518441e-03, 3.000000000000e-03
662, 2.946278254944e-03, 4.039733214514e-03, 3.000000000000e-03
663, 3.535533905933e-03, 3.535533905933e-03, 3.000000000000e-03
664, -3.535533905933e-03, -3.535533905933e-03, 4.500000000000e-03
665, -2.946278254944e-03, -4.039733214514e-03, 4.500000000000e-03
666, -2.357022603955e-03, -4.409585518441e-03, 4.500000000000e-03
667, -1.767766952966e-03, -4.677071733467e-03, 4.500000000000e-03
668, -1.178511301978e-03, -4.859126579038e-03, 4.500000000000e-03
669, -5.892556509888e-04, -4.965156369922e-03, 4.500000000000e-03
670, 0.000000000000e+00, -5.000000000000e-03, 4.500000000000e-03
671, 5.892556509888e-04, -4.965156369922e-03, 4.500000000000e-03
672, 1.178511301978e-03, -4.859126579038e-03, 4.500000000000e-03
673, 1.767766952966e-03, -4.677071733467e-03, 4.500000000000e-03
674, 2.357022603955e-03, -4.409585518441e-03, 4.500000000000e-03
675, 2.946278254944e-03, -4.039733214514e-03, 4.500000000000e-03
676, 3.535533905933e-03, -3.535533905933e-03, 4.500000000000e-03
677, -3.928064090618e-03, -3.093592167691e-03, 4.500000000000e-03
678, -3.273386742181e-03, -3.534766562699e-03, 4.500000000000e-03
679, -2.618709393745e-03, -3.858387328636e-03, 4.500000000000e-03
680, -1.964032045309e-03, -4.092437766784e-03, 4.500000000000e-03
681, -1.309354696873e-03, -4.251735756658e-03, 4.500000000000e-03
682, -6.546773484363e-04, -4.344511823682e-03, 4.500000000000e-03
683, 0.000000000000e+00, -4.375000000000e-03, 4.500000000000e-03
684, 6.546773484363e-04, -4.344511823682e-03, 4.500000000000e-03
685, 1.309354696873e-03, -4.251735756658e-03, 4.500000000000e-03
686, 1.964032045309e-03, -4.092437766784e-03, 4.500000000000e-03
687, 2.618709393745e-03, -3.858387328636e-03, 4.500000000000e-03
688, 3.273386742181e-03, -3.534766562699e-03, 4.500000000000e-03
689, 3.928064090618e-03, -3.093592167691e-03, 4.500000000000e-03
690, -4.238956239453e-03, -2.651650429450e-03, 4.500000000000e-03
691, -3.532463532878e-03, -3.029799910885e-03, 4.500000000000e-03
692, -2.825970826302e-03, -3.307189138831e-03, 4.500000000000e-03
693, -2.119478119727e-03, -3.507803800101e-03, 4.500000000000e-03
694, -1.412985413151e-03, -3.644344934278e-03, 4.500000000000e-03
695, -7.064927065755e-04, -3.723867277442e-03, 4.500000000000e-03
696, 0.000000000000e+00, -3.750000000000e-03, 4.500000000000e-03
697, 7.064927065755e-04, -3.723867277442e-03, 4.500000000000e-03
698, 1.412985413151e-03, -3.644344934278e-03, 4.500000000000e-03
699, 2.119478119727e-03, -3.507803800101e-03, 4.500000000000e-03
700, 2.825970826302e-03, -3.307189138831e-03, 4.500000000000e-03
701, 3.532463532878e-03, -3.029799910885e-03, 4.500000000000e-03
702, 4.238956239453e-03, -2.651650429450e-03, 4.500000000000e-03
703, -4.485218779502e-03, -2.209708691208e-03, 4.500000000000e-03
704, -3.737682316252e-03, -2.524833259071e-03, 4.500000000000e-03
705, -2.990145853002e-03, -2.755990949026e-03, 4.500000000000e-03
706, -2.242609389751e-03, -2.923169833417e-03, 4.500000000000e-03
707, -1.495072926501e-03, -3.036954111899e-03, 4.500000000000e-03
708, -7.475364632504e-04, -3.103222731201e-03, 4.500000000000e-03
709, 0.000000000000e+00, -3.125000000000e-03, 4.500000000000e-03
710, 7.475364632504e-04, -3.103222731201e-03, 4.500000000000e-03
711, 1.495072926501e-03, -3.036954111899e-03, 4.500000000000e-03
712, 2.242609389751e-03, -2.923169833417e-03, 4.500000000000e-03
713, 2.990145853002e-03, -2.755990949026e-03, 4.500000000000e-03
714, 3.737682316252e-03, -2.524833259071e-03, 4.500000000000e-03
715, 4.485218779502e-03, -2.209708691208e-03, 4.500000000000e-03
716, -4.677071733467e-03, -1.767766952966e-03, 4.500000000000e-03
717, -3.897559777890e-03, -2.019866607257e-03, 4.500000000000e-03
718, -3.118047822312e-03, -2.204792759220e-03, 4.500000000000e-03
719, -2.338535866734e-03, -2.338535866734e-03, 4.500000000000e-03
720, -1.559023911156e-03, -2.429563289519e-03, 4.500000000000e-03
721, -7.795119555779e-04, -2.482578184961e-03, 4.500000000000e-03
722, 0.000000000000e+00, -2.500000000000e-03, 4.500000000000e-03
723, 7.795119555779e-04, -2.482578184961e-03, 4.500000000000e-03
724, 1.559023911156e-03, -2.429563289519e-03, 4.500000000000e-03
725, 2.338535866734e-03, -2.338535866734e-03, 4.500000000000e-03
726, 3.118047822312e-03, -2.204792759220e-03, 4.500000000000e-03
727, 3.897559777890e-03, -2.019866607257e-03, 4.500000000000e-03
728, 4.677071733467e-03, -1.767766952966e-03, 4.500000000000e-03
729, -4.821015193919e-03, -1.325825214725e-03, 4.500000000000e-03
730, -4.017512661599e-03, -1.514899955443e-03, 4.500000000000e-03
731, -3.214010129279e-03, -1.653594569415e-03, 4.500000000000e-03
732, -2.410507596960e-03, -1.753901900050e-03, 4.500000000000e-03
733, -1.607005064640e-03, -1.822172467139e-03, 4.500000000000e-03
734, -8.035025323199e-04, -1.861933638721e-03, 4.500000000000e-03
735, 0.000000000000e+00, -1.875000000000e-03, 4.500000000000e-03
736, 8.035025323199e-04, -1.861933638721e-03, 4.500000000000e-03
737, 1.607005064640e-03, -1.822172467139e-03, 4.500000000000e-03
738, 2.410507596960e-03, -1.753901900050e-03, 4.500000000000e-03
739, 3.214010129279e-03, -1.653594569415e-03, 4.500000000000e-03
740, 4.017512661599e-03, -1.514899955443e-03, 4.500000000000e-03
741, 4.821015193919e-03, -1.325825214725e-03, 4.500000000000e-03
742, -4.921254921257e-03, -8.838834764832e-04, 4.500000000000e-03
743, -4.101045767714e-03, -1.009933303628e-03, 4.500000000000e-03
744, -3.280836614172e-03, -1.102396379610e-03, 4.500000000000e-03
745, -2.460627460629e-03, -1.169267933367e-03, 4.500000000000e-03
746, -1.640418307086e-03, -1.214781644759e-03, 4.500000000000e-03
747, -8.202091535429e-04, -1.241289092481e-03, 4.500000000000e-03
748, 0.000000000000e+00, -1.250000000000e-03, 4.500000000000e-03
749, 8.202091535429e-04, -1.241289092481e-03, 4.500000000000e-03
750, 1.640418307086e-03, -1.214781644759e-03, 4.500000000000e-03
751, 2.460627460629e-03, -1.169267933367e-03, 4.500000000000e-03
752, 3.280836614172e-03, -1.102396379610e-03, 4.500000000000e-03
753, 4.101045767714e-03, -1.009933303628e-03, 4.500000000000e-03
754, 4.921254921257e-03, -8.838834764832e-04, 4.500000000000e-03
755, -4.980430453284e-03, -4.419417382416e-04, 4.500000000000e-03
756, -4.150358711070e-03, -5.049666518142e-04, 4.500000000000e-03
757, -3.320286968856e-03, -5.511981898051e-04, 4.500000000000e-03
758, -2.490215226642e-03, -5.846339666834e-04, 4.500000000000e-03
759, -1.660143484428e-03, -6.073908223797e-04, 4.500000000000e-03
760, -8.300717422140e-04, -6.206445462403e-04, 4.500000000000e-03
761, 0.000000000000e+00, -6.250000000000e-04, 4.500000000000e-03
762, 8.300717422140e-04, -6.206445462403e-04, 4.500000000000e-03
763, 1.660143484428e-03, -6.073908223797e-04, 4.500000000000e-03
764, 2.490215226642e-03, -5.846339666834e-04, 4.500000000000e-03
765, 3.320286968856e-03, -5.511981898051e-04, 4.500000000000e-03
766, 4.150358711070e-03, -5.049666518142e-04, 4.500000000000e-03
767, 4.980430453284e-03, -4.419417382416e-04, 4.500000000000e-03
768, -5.000000000000e-03, 0.000000000000e+00, 4.500000000000e-03
769, -4.166666666667e-03, 0.000000000000e+00, 4.500000000000e-03
770, -3.333333333333e-03, 0.000000000000e+00, 4.500000000000e-03
771, -2.500000000000e-03, 0.000000000000e+00, 4.500000000000e-03
772, -1.666666666667e-03, 0.000000000000e+00, 4.500000000000e-03
773, -8.333333333333e-04, 0.000000000000e+00, 4.500000000000e-03
774, 0.000000000000e+00, 0.000000000000e+00, 4.500000000000e-03
775, 8.333333333333e-04, 0.000000000000e+00, 4.500000000000e-03
776, 1.666666666667e-03, 0.000000000000e+00, 4.500000000000e-03
777, 2.500000000000e-03, 0.000000000000e+00, 4.500000000000e-03
778, 3.333333333333e-03, 0.000000000000e+00, 4.500000000000e-03
779, 4.166666666667e-03, 0.000000000000e+00, 4.500000000000e-03
780, 5.000000000000e-03, 0.000000000000e+00, 4.500000000000e-03
781, -4.980430453284e-03, 4.419417382416e-04, 4.500000000000e-03
782, -4.150358711070e-03, 5.049666518142e-04, 4.500000000000e-03
783, -3.320286968856e-03, 5.511981898051e-04, 4.500000000000e-03
784, -2.490215226642e-03, 5.846339666834e-04, 4.500000000000e-03
785, -1.660143484428e-03, 6.073908223797e-04, 4.500000000000e-03
786, -8.300717422140e-04, 6.206445462403e-04, 4.500000000000e-03
787, 0.000000000000e+00, 6.250000000000e-04, 4.500000000000e-03
788, 8.300717422140e-04, 6.206445462403e-04, 4.500000000000e-03
789, 1.660143484428e-03, 6.073908223797e-04, 4.500000000000e-03
790, 2.490215226642e-03, 5.846339666834e-04, 4.500000000000e-03
791, 3.320286968856e-03, 5.511981898051e-04, 4.500000000000e-03
792, 4.150358711070e-03, 5.049666518142e-04, 4.500000000000e-03
793, 4.980430453284e-03, 4.419417382416e-04, 4.500000000000e-03
794, -4.921254921257e-03, 8.838834764832e-04, 4.500000000000e-03
795, -4.101045767714e-03, 1.009933303628e-03, 4.500000000000e-03
796, -3.280836614172e-03, 1.102396379610e-03, 4.500000000000e-03
797, -2.460627460629e-03, 1.169267933367e-03, 4.500000000000e-03
798, -1.640418307086e-03, 1.214781644759e-03, 4.500000000000e-03
799, -8.202091535429e-04, 1.241289092481e-03, 4.500000000000e-03
800, 0.000000000000e+00, 1.250000000000e-03, 4.500000000000e-03
801, 8.202091535429e-04, 1.241289092481e-03, 4.500000000000e-03
802, 1.640418307086e-03, 1.214781644759e-03, 4.500000000000e-03
803, 2.460627460629e-03, 1.169267933367e-03, 4.500000000000e-03
804, 3.280836614172e-03, 1.102396379610e-03, 4.500000000000e-03
805, 4.101045767714e-03, 1.009933303628e-03, 4.500000000000e-03
806, 4.921254921257e-03, 8.838834764832e-04, 4.500000000000e-03
807, -4.821015193919e-03, 1.325825214725e-03, 4.500000000000e-03
808, -4.017512661599e-03, 1.514899955443e-03, 4.500000000000e-03
809, -3.214010129279e-03, 1.653594569415e-03, 4.500000000000e-03
810, -2.410507596960e-03, 1.753901900050e-03, 4.500000000000e-03
811, -1.607005064640e-03, 1.822172467139e-03, 4.500000000000e-03
812, -8.035025323199e-04, 1.861933638721e-03, 4.500000000000e-03
813, 0.000000000000e+00, 1.875000000000e-03, 4.500000000000e-03
814, 8.035025323199e-04, 1.861933638721e-03, 4.500000000000e-03
815, 1.607005064640e-03, 1.822172467139e-03, 4.500000000000e-03
816, 2.410507596960e-03, 1.753901900050e-03, 4.500000000000e-03
817, 3.214010129279e-03, 1.653594569415e-03, 4.500000000000e-03
818, 4.017512661599e-03, 1.514899955443e-03, 4.500000000000e-03
819, 4.821015193919e-03, 1.325825214725e-03, 4.500000000000e-03
820, -4.677071733467e-03, 1.767766952966e-03, 4.500000000000e-03
821, -3.897559777890e-03, 2.019866607257e-03, 4.500000000000e-03
822, -3.118047822312e-03, 2.204792759220e-03, 4.500000000000e-03
823, -2.338535866734e-03, 2.338535866734e-03, 4.500000000000e-03
824, -1.559023911156e-03, 2.429563289519e-03, 4.500000000000e-03
825, -7.795119555779e-04, 2.482578184961e-03, 4.500000000000e-03
826, 0.000000000000e+00, 2.500000000000e-03, 4.500000000000e-03
827, 7.795119555779e-04, 2.482578184961e-03, 4.500000000000e-03
828, 1.559023911156e-03, 2.429563289519e-03, 4.500000000000e-03
829, 2.338535866734e-03, 2.338535866734e-03, 4.500000000000e-03
830, 3.118047822312e-03, 2.204792759220e-03, 4.500000000000e-03
831, 3.897559777890e-03, 2.019866607257e-03, 4.500000000000e-03
832, 4.677071733467e-03, 1.767766952966e-03, 4.500000000000e-03
833, -4.485218779502e-03, 2.209708691208e-03, 4.500000000000e-03
834, -3.737682316252e-03, 2.524833259071e-03, 4.500000000000e-03
835, -2.990145853002e-03, 2.755990949026e-03, 4.500000000000e-03
836, -2.242609389751e-03, 2.923169833417e-03, 4.500000000000e-03
837, -1.495072926501e-03, 3.036954111899e-03, 4.500000000000e-03
838, -7.475364632504e-04, 3.103222731201e-03, 4.500000000000e-03
839, 0.000000000000e+00, 3.125000000000e-03, 4.500000000000e-03
840, 7.475364632504e-04, 3.103222731201e-03, 4.500000000000e-03
841, 1.495072926501e-03, 3.036954111899e-03, 4.500000000000e-03
842, 2.242609389751e-03, 2.923169833417e-03, 4.500000000000e-03
843, 2.990145853002e-03, 2.755990949026e-03, 4.500000000000e-03
844, 3.737682316252e-03, 2.524833259071e-03, 4.500000000000e-03
845, 4.485218779502e-03, 2.209708691208e-03, 4.500000000000e-03
846, -4.238956239453e-03, 2.651650429450e-03, 4.500000000000e-03
847, -3.532463532878e-03, 3.029799910885e-03, 4.500000000000e-03
848, -2.825970826302e-03, 3.307189138831e-03, 4.500000000000e-03
849, -2.119478119727e-03, 3.507803800101e-03, 4.500000000000e-03
850, -1.412985413151e-03, 3.644344934278e-03, 4.500000000000e-03
851, -7.064927065755e-04, 3.723867277442e-03, 4.500000000000e-03
852, 0.000000000000e+00, 3.750000000000e-03, 4.500000000000e-03
853, 7.064927065755e-04, 3.723867277442e-03, 4.500000000000e-03
854, 1.412985413151e-03, 3.644344934278e-03, 4.500000000000e-03
855, 2.119478119727e-03, 3.507803800101e-03, 4.500000000000e-03
856, 2.825970826302e-03, 3.307189138831e-03, 4.500000000000e-03
857, 3.532463532878e-03, 3.029799910885e-03, 4.500000000000e-03
858, 4.238956239453e-03, 2.651650429450e-03, 4.500000000000e-03
859, -3.928064090618e-03, 3.093592167691e-03, 4.500000000000e-03
860, -3.273386742181e-03, 3.534766562699e-03, 4.500000000000e-03
861, -2.618709393745e-03, 3.858387328636e-03, 4.500000000000e-03
862, -1.964032045309e-03, 4.092437766784e-03, 4.500000000000e-03
863, -1.309354696873e-03, 4.251735756658e-03, 4.500000000000e-03
864, -6.546773484363e-04, 4.344511823682e-03, 4.500000000000e-03
865, 0.000000000000e+00, 4.375000000000e-03, 4.500000000000e-03
866, 6.546773484363e-04, 4.344511823682e-03, 4.500000000000e-03
867, 1.309354696873e-03, 4.251735756658e-03, 4.500000000000e-03
868, 1.964032045309e-03, 4.092437766784e-03, 4.500000000000e-03
869, 2.618709393745e-03, 3.858387328636e-03, 4.500000000000e-03
870, 3.273386742181e-03, 3.534766562699e-03, 4.500000000000e-03
871, 3.928064090618e-03, 3.093592167691e-03, 4.500000000000e-03
872, -3.535533905933e-03, 3.535533905933e-03, 4.500000000000e-03
873, -2.946278254944e-03, 4.039733214514e-03, 4.500000000000e-03
874, -2.357022603955e-03, 4.409585518441e-03, 4.500000000000e-03
875, -1.767766952966e-03, 4.677071733467e-03, 4.500000000000e-03
876, -1.178511301978e-03, 4.859126579038e-03, 4.500000000000e-03
877, -5.892556509888e-04, 4.965156369922e-03, 4.500000000000e-03
878, 0.000000000000e+00, 5.000000000000e-03, 4.500000000000e-03
879, 5.892556509888e-04, 4.965156369922e-03, 4.500000000000e-03
880, 1.178511301978e-03, 4.859126579038e-03, 4.500000000000e-03
881, 1.767766952966e-03, 4.677071733467e-03, 4.500000000000e-03
882, 2.357022603955e-03, 4.409585518441e-03, 4.500000000000e-03
883, 2.946278254944e-03, 4.039733214514e-03, 4.500000000000e-03
884, 3.535533905933e-03, 3.535533905933e-03, 4.500000000000e-03
885, -3.535533905933e-03, -3.535533905933e-03, 6.000000000000e-03
886, -2.946278254944e-03, -4.039733214514e-03, 6.000000000000e-03
887, -2.357022603955e-03, -4.409585518441e-03, 6.000000000000e-03
888, -1.767766952966e-03, -4.677071733467e-03, 6.000000000000e-03
889, -1.178511301978e-03, -4.859126579038e-03, 6.000000000000e-03
890, -5.892556509888e-04, -4.965156369922e-03, 6.000000000000e-03
891, 0.000000000000e+00, -5.000000000000e-03, 6.000000000000e-03
892, 5.892556509888e-04, -4.965156369922e-03, 6.000000000000e-03
893, 1.178511301978e-03, -4.859126579038e-03, 6.000000000000e-03
894, 1.767766952966e-03, -4.677071733467e-03, 6.000000000000e-03
895, 2.357022603955e-03, -4.409585518441e-03, 6.000000000000e-03
896, 2.946278254944e-03, -4.039733214514e-03, 6.000000000000e-03
897, 3.535533905933e-03, -3.535533905933e-03, 6.000000000000e-03
898, -3.928064090618e-03, -3.093592167691e-03, 6.000000000000e-03
899, -3.273386742181e-03, -3.534766562699e-03, 6.000000000000e-03
900, -2.618709393745e-03, -3.858387328636e-03, 6.000000000000e-03
901, -1.964032045309e-03, -4.092437766784e-03, 6.000000000000e-03
902, -1.309354696873e-03, -4.251735756658e-03, 6.000000000000e-03
903, -6.546773484363e-04, -4.344511823682e-03, 6.000000000000e-03
904, 0.000000000000e+00, -4.375000000000e-03, 6.000000000000e-03
905, 6.546773484363e-04, -4.344511823682e-03, 6.000000000000e-03
906, 1.309354696873e-03, -4.251735756658e-03, 6.000000000000e-03
907, 1.964032045309e-03, -4.092437766784e-03, 6.000000000000e-03
908, 2.618709393745e-03, -3.858387328636e-03, 6.000000000000e-03
909, 3.273386742181e-03, -3.534766562699e-03, 6.000000000000e-03
910, 3.928064090618e-03, -3.093592167691e-03, 6.000000000000e-03
911, -4.238956239453e-03, -2.651650429450e-03, 6.000000000000e-03
912, -3.532463532878e-03, -3.029799910885e-03, 6.000000000000e-03
913, -2.825970826302e-03, -3.307189138831e-03, 6.000000000000e-03
914, -2.119478119727e-03, -3.507803800101e-03, 6.000000000000e-03
915, -1.412985413151e-03, -3.644344934278e-03, 6.000000000000e-03
916, -7.064927065755e-04, -3.723867277442e-03, 6.000000000000e-03
917, 0.000000000000e+00, -3.750000000000e-03, 6.000000000000e-03
918, 7.064927065755e-04, -3.723867277442e-03, 6.000000000000e-03
919, 1.412985413151e-03, -3.644344934278e-03, 6.000000000000e-03
920, 2.119478119727e-03, -3.507803800101e-03, 6.000000000000e-03
921, 2.825970826302e-03, -3.307189138831e-03, 6.000000000000e-03
922, 3.532463532878e-03, -3.029799910885e-03, 6.000000000000e-03
923, 4.238956239453e-03, -2.651650429450e-03, 6.000000000000e-03
924, -4.485218779502e-03, -2.209708691208e-03, 6.000000000000e-03
925, -3.737682316252e-03, -2.524833259071e-03, 6.000000000000e-03
926, -2.990145853002e-03, -2.755990949026e-03, 6.000000000000e-03
927, -2.242609389751e-03, -2.923169833417e-03, 6.000000000000e-03
928, -1.495072926501e-03, -3.036954111899e-03, 6.000000000000e-03
929, -7.475364632504e-04, -3.103222731201e-03, 6.000000000000e-03
930, 0.000000000000e+00, -3.125000000000e-03, 6.000000000000e-03
931, 7.475364632504e-04, -3.103222731201e-03, 6.000000000000e-03
932, 1.495072926501e-03, -3.036954111899e-03, 6.000000000000e-03
933, 2.242609389751e-03, -2.923169833417e-03, 6.000000000000e-03
934, 2.990145853002e-03, -2.755990949026e-03, 6.000000000000e-03
935, 3.737682316252e-03, -2.524833259071e-03, 6.000000000000e-03
936, 4.485218779502e-03, -2.209708691208e-03, 6.000000000000e-03
937, -4.677071733467e-03, -1.767766952966e-03, 6.000000000000e-03
938, -3.897559777890e-03, -2.019866607257e-03, 6.000000000000e-03
939, -3.118047822312e-03, -2.204792759220e-03, 6.000000000000e-03
940, -2.338535866734e-03, -2.338535866734e-03, 6.000000000000e-03
941, -1.559023911156e-03, -2.429563289519e-03, 6.000000000000e-03
942, -7.795119555779e-04, -2.482578184961e-03, 6.000000000000e-03
943, 0.000000000000e+00, -2.500000000000e-03, 6.000000000000e-03
944, 7.795119555779e-04, -2.482578184961e-03, 6.000000000000e-03
945, 1.559023911156e-03, -2.429563289519e-03, 6.000000000000e-03
946, 2.338535866734e-03, -2.338535866734e-03, 6.000000000000e-03
947, 3.118047822312e-03, -2.204792759220e-03, 6.000000000000e-03
948, 3.897559777890e-03, -2.019866607257e-03, 6.000000000000e-03
949, 4.677071733467e-03, -1.767766952966e-03, 6.000000000000e-03
950, -4.821015193919e-03, -1.325825214725e-03, 6.000000000000e-03
951, -4.017512661599e-03, -1.514899955443e-03, 6.000000000000e-03
952, -3.214010129279e-03, -1.653594569415e-03, 6.000000000000e-03
953, -2.410507596960e-03, -1.753901900050e-03, 6.000000000000e-03
954, -1.607005064640e-03, -1.822172467139e-03, 6.000000000000e-03
955, -8.035025323199e-04, -1.861933638721e-03, 6.000000000000e-03
956, 0.000000000000e+00, -1.875000000000e-03, 6.000000000000e-03
957, 8.035025323199e-04, -1.861933638721e-03, 6.000000000000e-03
958, 1.607005064640e-03, -1.822172467139e-03, 6.000000000000e-03
959, 2.410507596960e-03, -1.753901900050e-03, 6.000000000000e-03
960, 3.214010129279e-03, -1.653594569415e-03, 6.000000000000e-03
961, 4.017512661599e-03, -1.514899955443e-03, 6.000000000000e-03
962, 4.821015193919e-03, -1.325825214725e-03, 6.000000000000e-03
963, -4.921254921257e-03, -8.838834764832e-04, 6.000000000000e-03
964, -4.101045767714e-03, -1.009933303628e-03, 6.000000000000e-03
965, -3.280836614172e-03, -1.102396379610e-03, 6.000000000000e-03
966, -2.460627460629e-03, -1.169267933367e-03, 6.000000000000e-03
967, -1.640418307086e-03, -1.214781644759e-03, 6.000000000000e-03
968, -8.202091535429e-04, -1.241289092481e-03, 6.000000000000e-03
969, 0.000000000000e+00, -1.250000000000e-03, 6.000000000000e-03
970, 8.202091535429e-04, -1.241289092481e-03, 6.000000000000e-03
971, 1.640418307086e-03, -1.214781644759e-03, 6.000000000000e-03
972, 2.460627460629e-03, -1.169267933367e-03, 6.000000000000e-03
973, 3.280836614172e-03, -1.102396379610e-03, 6.000000000000e-03
974, 4.101045767714e-03, -1.009933303628e-03, 6.000000000000e-03
975, 4.921254921257e-03, -8.838834764832e-04, 6.000000000000e-03
976, -4.980430453284e-03, -4.419417382416e-04, 6.000000000000e-03
977, -4.150358711070e-03, -5.049666518142e-04, 6.000000000000e-03
978, -3.320286968856e-03, -5.511981898051e-04, 6.000000000000e-03
979, -2.490215226642e-03, -5.846339666834e-04, 6.000000000000e-03
980, -1.660143484428e-03, -6.073908223797e-04, 6.000000000000e-03
981, -8.300717422140e-04, -6.206445462403e-04, 6.000000000000e-03
982, 0.000000000000e+00, -6.250000000000e-04, 6.000000000000e-03
983, 8.300717422140e-04, -6.206445462403e-04, 6.000000000000e-03
984, 1.660143484428e-03, -6.073908223797e-04, 6.000000000000e-03
985, 2.490215226642e-03, -5.846339666834e-04, 6.000000000000e-03
986, 3.320286968856e-03, -5.511981898051e-04, 6.000000000000e-03
987, 4.150358711070e-03, -5.049666518142e-04, 6.000000000000e-03
988, 4.980430453284e-03, -4.419417382416e-04, 6.000000000000e-03
989, -5.000000000000e-03, 0.000000000000e+00, 6.000000000000e-03
990, -4.166666666667e-03, 0.000000000000e+00, 6.000000000000e-03
991, -3.333333333333e-03, 0.000000000000e+00, 6.000000000000e-03
992, -2.500000000000e-03, 0.000000000000e+00, 6.000000000000e-03
993, -1.666666666667e-03, 0.000000000000e+00, 6.000000000000e-03
994, -8.333333333333e-04, 0.000000000000e+00, 6.000000000000e-03
995, 0.000000000000e+00, 0.000000000000e+00, 6.000000000000e-03
996, 8.333333333333e-04, 0.000000000000e+00, 6.000000000000e-03
997, 1.666666666667e-03, 0.000000000000e+00, 6.000000000000e-03
998, 2.500000000000e-03, 0.000000000000e+00, 6.000000000000e-03
999, 3.333333333333e-03, 0.000000000000e+00, 6.000000000000e-03
1000, 4.166666666667e-03, 0.000000000000e+00, 6.000000000000e-03
1001, 5.000000000000e-03, 0.000000000000e+00, 6.000000000000e-03
1002, -4.980430453284e-03, 4.419417382416e-04, 6.000000000000e-03
1003, -4.150358711070e-03, 5.049666518142e-04, 6.000000000000e-03
1004, -3.320286968856e-03, 5.511981898051e-04, 6.000000000000e-03
1005, -2.490215226642e-03, 5.846339666834e-04, 6.000000000000e-03
1006, -1.660143484428e-03, 6.073908223797e-04, 6.000000000000e-03
1007, -8.300717422140e-04, 6.206445462403e-04, 6.000000000000e-03
1008, 0.000000000000e+00, 6.250000000000e-04, 6.000000000000e-03
1009, 8.300717422140e-04, 6.206445462403e-04, 6.000000000000e-03
1010, 1.660143484428e-03, 6.073908223797e-04, 6.000000000000e-03
1011, 2.490215226642e-03, 5.846339666834e-04, 6.000000000000e-03
1012, 3.320286968856e-03, 5.511981898051e-04, 6.000000000000e-03
1013, 4.150358711070e-03, 5.049666518142e-04, 6.000000000000e-03
1014, 4.980430453284e-03, 4.419417382416e-04, 6.000000000000e-03
1015, -4.921254921257e-03, 8.838834764832e-04, 6.000000000000e-03
1016, -4.101045767714e-03, 1.009933303628e-03, 6.000000000000e-03
1017, -3.280836614172e-03, 1.102396379610e-03, 6.000000000000e-03
1018, -2.460627460629e-03, 1.169267933367e-03, 6.000000000000e-03
1019, -1.640418307086e-03, 1.214781644759e-03, 6.000000000000e-03
1020, -8.202091535429e-04, 1.241289092481e-03, 6.000000000000e-03
1021, 0.000000000000e+00, 1.250000000000e-03, 6.000000000000e-03
1022, 8.202091535429e-04, 1.241289092481e-03, 6.000000000000e-03
1023, 1.640418307086e-03, 1.214781644759e-03, 6.000000000000e-03
1024, 2.460627460629e-03, 1.169267933367e-03, 6.000000000000e-03
1025, 3.280836614172e-03, 1.102396379610e-03, 6.000000000000e-03
1026, 4.101045767714e-03, 1.009933303628e-03, 6.000000000000e-03
1027, 4.921254921257e-03, 8.838834764832e-04, 6.000000000000e-03
1028, -4.821015193919e-03, 1.325825214725e-03, 6.000000000000e-03
1029, -4.017512661599e-03, 1.514899955443e-03, 6.000000000000e-03
1030, -3.214010129279e-03, 1.653594569415e-03, 6.000000000000e-03
1031, -2.410507596960e-03, 1.753901900050e-03, 6.000000000000e-03
1032, -1.607005064640e-03, 1.822172467139e-03, 6.000000000000e-03
1033, -8.035025323199e-04, 1.861933638721e-03, 6.000000000000e-03
1034, 0.000000000000e+00, 1.875000000000e-03, 6.000000000000e-03
1035, 8.035025323199e-04, 1.861933638721e-03, 6.000000000000e-03
1036, 1.607005064640e-03, 1.822172467139e-03, 6.000000000000e-03
1037, 2.410507596960e-03, 1.753901900050e-03, 6.000000000000e-03
1038, 3.214010129279e-03, 1.653594569415e-03, 6.000000000000e-03
1039, 4.017512661599e-03, 1.514899955443e-03, 6.000000000000e-03
1040, 4.821015193919e-03, 1.325825214725e-03, 6.000000000000e-03
1041, -4.677071733467e-03, 1.767766952966e-03, 6.000000000000e-03
1042, -3.897559777890e-03, 2.019866607257e-03, 6.000000000000e-03
1043, -3.118047822312e-03, 2.204792759220e-03, 6.000000000000e-03
1044, -2.338535866734e-03, 2.338535866734e-03, 6.000000000000e-03
1045, -1.559023911156e-03, 2.429563289519e-03, 6.000000000000e-03
1046, -7.795119555779e-04, 2.482578184961e-03, 6.000000000000e-03
1047, 0.000000000000e+00, 2.500000000000e-03, 6.000000000000e-03
1048, 7.795119555779e-04, 2.482578184961e-03, 6.000000000000e-03
1049, 1.559023911156e-03, 2.429563289519e-03, 6.000000000000e-03
1050, 2.338535866734e-03, 2.338535866734e-03, 6.000000000000e-03
1051, 3.118047822312e-03, 2.204792759220e-03, 6.000000000000e-03
1052, 3.897559777890e-03, 2.019866607257e-03, 6.000000000000e-03
1053, 4.677071733467e-03, 1.767766952966e-03, 6.000000000000e-03
1054, -4.485218779502e-03, 2.209708691208e-03, 6.000000000000e-03
1055, -3.737682316252e-03, 2.524833259071e-03, 6.000000000000e-03
1056, -2.990145853002e-03, 2.755990949026e-03, 6.000000000000e-03
1057, -2.242609389751e-03, 2.923169833417e-03, 6.000000000000e-03
1058, -1.495072926501e-03, 3.036954111899e-03, 6.000000000000e-03
1059, -7.475364632504e-04, 3.103222731201e-03, 6.000000000000e-03
1060, 0.000000000000e+00, 3.125000000000e-03, 6.000000000000e-03
1061, 7.475364632504e-04, 3.103222731201e-03, 6.000000000000e-03
1062, 1.495072926501e-03, 3.036954111899e-03, 6.000000000000e-03
1063, 2.242609389751e-03, 2.923169833417e-03, 6.000000000000e-03
1064, 2.990145853002e-03, 2.755990949026e-03, 6.000000000000e-03
1065, 3.737682316252e-03, 2.524833259071e-03, 6.000000000000e-03
1066, 4.485218779502e-03, 2.209708691208e-03, 6.000000000000e-03
1067, -4.238956239453e-03, 2.651650429450e-03, 6.000000000000e-03
1068, -3.532463532878e-03, 3.029799910885e-03, 6.000000000000e-03
1069, -2.825970826302e-03, 3.307189138831e-03, 6.000000000000e-03
1070, -2.119478119727e-03, 3.507803800101e-03, 6.000000000000e-03
1071, -1.412985413151e-03, 3.644344934278e-03, 6.000000000000e-03
1072, -7.064927065755e-04, 3.723867277442e-03, 6.000000000000e-03
1073, 0.000000000000e+00, 3.750000000000e-03, 6.000000000000e-03
1074, 7.064927065755e-04, 3.723867277442e-03, 6.000000000000e-03
1075, 1.412985413151e-03, 3.644344934278e-03, 6.000000000000e-03
1076, 2.119478119727e-03, 3.507803800101e-03, 6.000000000000e-03
1077, 2.825970826302e-03, 3.307189138831e-03, 6.000000000000e-03
1078, 3.532463532878e-03, 3.029799910885e-03, 6.000000000000e-03
1079, 4.238956239453e-03, 2.651650429450e-03, 6.000000000000e-03
1080, -3.928064090618e-03, 3.093592167691e-03, 6.000000000000e-03
1081, -3.273386742181e-03, 3.534766562699e-03, 6.000000000000e-03
1082, -2.618709393745e-03, 3.858387328636e-03, 6.000000000000e-03
1083, -1.964032045309e-03, 4.092437766784e-03, 6.000000000000e-03
1084, -1.309354696873e-03, 4.251735756658e-03, 6.000000000000e-03
1085, -6.546773484363e-04, 4.344511823682e-03, 6.000000000000e-03
1086, 0.000000000000e+00, 4.375000000000e-03, 6.000000000000e-03
1087, 6.546773484363e-04, 4.344511823682e-03, 6.000000000000e-03
1088, 1.309354696873e-03, 4.251735756658e-03, 6.000000000000e-03
1089, 1.964032045309e-03, 4.092437766784e-03, 6.000000000000e-03
1090, 2.618709393745e-03, 3.858387328636e-03, 6.000000000000e-03
1091, 3.273386742181e-03, 3.534766562699e-03, 6.000000000000e-03
1092, 3.928064090618e-03, 3.093592167691e-03, 6.000000000000e-03
1093, -3.535533905933e-03, 3.535533905933e-03, 6.000000000000e-03
1094, -2.946278254944e-03, 4.039733214514e-03, 6.000000000000e-03
1095, -2.357022603955e-03, 4.409585518441e-03, 6.000000000000e-03
1096, -1.767766952966e-03, 4.677071733467e-03, 6.000000000000e-03
1097, -1.178511301978e-03, 4.859126579038e-03, 6.000000000000e-03
1098, -5.892556509888e-04, 4.965156369922e-03, 6.000000000000e-03
1099, 0.000000000000e+00, 5.000000000000e-03, 6.000000000000e-03
1100, 5.892556509888e-04, 4.965156369922e-03, 6.000000000000e-03
1101, 1.178511301978e-03, 4.859126579038e-03, 6.000000000000e-03
1102, 1.767766952966e-03, 4.677071733467e-03, 6.000000000000e-03
1103, 2.357022603955e-03, 4.409585518441e-03, 6.000000000000e-03
1104, 2.946278254944e-03, 4.039733214514e-03, 6.000000000000e-03
1105, 3.535533905933e-03, 3.535533905933e-03, 6.000000000000e-03
1106, -3.535533905933e-03, -3.535533905933e-03, 7.500000000000e-03
1107, -2.946278254944e-03, -4.039733214514e-03, 7.500000000000e-03
1108, -2.357022603955e-03, -4.409585518441e-03, 7.500000000000e-03
1109, -1.767766952966e-03, -4.677071733467e-03, 7.500000000000e-03
1110, -1.178511301978e-03, -4.859126579038e-03, 7.500000000000e-03
1111, -5.892556509888e-04, -4.965156369922e-03, 7.500000000000e-03
1112, 0.000000000000e+00, -5.000000000000e-03, 7.500000000000e-03
1113, 5.892556509888e-04, -4.965156369922e-03, 7.500000000000e-03
1114, 1.178511301978e-03, -4.859126579038e-03, 7.500000000000e-03
1115, 1.767766952966e-03, -4.677071733467e-03, 7.500000000000e-03
1116, 2.357022603955e-03, -4.409585518441e-03, 7.500000000000e-03
1117, 2.946278254944e-03, -4.039733214514e-03, 7.500000000000e-03
1118, 3.535533905933e-03, -3.535533905933e-03, 7.500000000000e-03
1119, -3.928064090618e-03, -3.093592167691e-03, 7.500000000000e-03
1120, -3.273386742181e-03, -3.534766562699e-03, 7.500000000000e-03
1121, -2.618709393745e-03, -3.858387328636e-03, 7.500000000000e-03
1122, -1.964032045309e-03, -4.092437766784e-03, 7.500000000000e-03
1123, -1.309354696873e-03, -4.251735756658e-03, 7.500000000000e-03
1124, -6.546773484363e-04, -4.344511823682e-03, 7.500000000000e-03
1125, 0.000000000000e+00, -4.375000000000e-03, 7.500000000000e-03
1126, 6.546773484363e-04, -4.344511823682e-03, 7.500000000000e-03
1127, 1.309354696873e-03, -4.251735756658e-03, 7.500000000000e-03
1128, 1.964032045309e-03, -4.092437766784e-03, 7.500000000000e-03
1129, 2.618709393745e-03, -3.858387328636e-03, 7.500000000000e-03
1130, 3.273386742181e-03, -3.534766562699e-03, 7.500000000000e-03
1131, 3.928064090618e-03, -3.093592167691e-03, 7.500000000000e-03
1132, -4.238956239453e-03, -2.651650429450e-03, 7.500000000000e-03
1133, -3.532463532878e-03, -3.029799910885e-03, 7.500000000000e-03
1134, -2.825970826302e-03, -3.307189138831e-03, 7.500000000000e-03
1135, -2.119478119727e-03, -3.507803800101e-03, 7.500000000000e-03
1136, -1.412985413151e-03, -3.644344934278e-03, 7.500000000000e-03
1137, -7.064927065755e-04, -3.723867277442e-03, 7.500000000000e-03
1138, 0.000000000000e+00, -3.750000000000e-03, 7.500000000000e-03
1139, 7.064927065755e-04, -3.723867277442e-03, 7.500000000000e-03
1140, 1.412985413151e-03, -3.644344934278e-03, 7.500000000000e-03
1141, 2.119478119727e-03, -3.507803800101e-03, 7.500000000000e-03
1142, 2.825970826302e-03, -3.307189138831e-03, 7.500000000000e-03
1143, 3.532463532878e-03, -3.029799910885e-03, 7.500000000000e-03
1144, 4.238956239453e-03, -2.651650429450e-03, 7.500000000000e-03
1145, -4.485218779502e-03, -2.209708691208e-03, 7.500000000000e-03
1146, -3.737682316252e-03, -2.524833259071e-03, 7.500000000000e-03
1147, -2.990145853002e-03, -2.755990949026e-03, 7.500000000000e-03
1148, -2.242609389751e-03, -2.923169833417e-03, 7.500000000000e-03
1149, -1.495072926501e-03, -3.036954111899e-03, 7.500000000000e-03
1150, -7.475364632504e-04, -3.103222731201e-03, 7.500000000000e-03
1151, 0.000000000000e+00, -3.125000000000e-03, 7.500000000000e-03
1152, 7.475364632504e-04, -3.103222731201e-03, 7.500000000000e-03
1153, 1.495072926501e-03, -3.036954111899e-03, 7.500000000000e-03
1154, 2.242609389751e-03, -2.923169833417e-03, 7.500000000000e-03
1155, 2.990145853002e-03, -2.755990949026e-03, 7.500000000000e-03
1156, 3.737682316252e-03, -2.524833259071e-03, 7.500000000000e-03
1157, 4.485218779502e-03, -2.209708691208e-03, 7.500000000000e-03
1158, -4.677071733467e-03, -1.767766952966e-03, 7.500000000000e-03
1159, -3.897559777890e-03, -2.019866607257e-03, 7.500000000000e-03
1160, -3.118047822312e-03, -2.204792759220e-03, 7.500000000000e-03
1161, -2.338535866734e-03, -2.338535866734e-03, 7.500000000000e-03
1162, -1.559023911156e-03, -2.429563289519e-03, 7.500000000000e-03
1163, -7.795119555779e-04, -2.482578184961e-03, 7.500000000000e-03
1164, 0.000000000000e+00, -2.500000000000e-03, 7.500000000000e-03
1165, 7.795119555779e-04, -2.482578184961e-03, 7.500000000000e-03
1166, 1.559023911156e-03, -2.429563289519e-03, 7.500000000000e-03
1167, 2.338535866734e-03, -2.338535866734e-03, 7.500000000000e-03
1168, 3.118047822312e-03, -2.204792759220e-03, 7.500000000000e-03
1169, 3.897559777890e-03, -2.019866607257e-03, 7.500000000000e-03
1170, 4.677071733467e-03, -1.767766952966e-03, 7.500000000000e-03
1171, -4.821015193919e-03, -1.325825214725e-03, 7.500000000000e-03
1172, -4.017512661599e-03, -1.514899955443e-03, 7.500000000000e-03
1173, -3.214010129279e-03, -1.653594569415e-03, 7.500000000000e-03
1174, -2.410507596960e-03, -1.753901900050e-03, 7.500000000000e-03
1175, -1.607005064640e-03, -1.822172467139e-03, 7.500000000000e-03
1176, -8.035025323199e-04, -1.861933638721e-03, 7.500000000000e-03
1177, 0.000000000000e+00, -1.875000000000e-03, 7.500000000000e-03
1178, 8.035025323199e-04, -1.861933638721e-03, 7.500000000000e-03
1179, 1.607005064640e-03, -1.822172467139e-03, 7.500000000000e-03
1180, 2.410507596960e-03, -1.753901900050e-03, 7.500000000000e-03
1181, 3.214010129279e-03, -1.653594569415e-03, 7.500000000000e-03
1182, 4.017512661599e-03, -1.514899955443e-03, 7.500000000000e-03
1183, 4.821015193919e-03, -1.325825214725e-03, 7.500000000000e-03
1184, -4.921254921257e-03, -8.838834764832e-04, 7.500000000000e-03
1185, -4.101045767714e-03, -1.009933303628e-03, 7.500000000000e-03
1186, -3.280836614172e-03, -1.102396379610e-03, 7.500000000000e-03
1187, -2.460627460629e-03, -1.169267933367e-03, 7.500000000000e-03
1188, -1.640418307086e-03, -1.214781644759e-03, 7.500000000000e-03
1189, -8.202091535429e-04, -1.241289092481e-03, 7.500000000000e-03
1190, 0.000000000000e+00, -1.250000000000e-03, 7.500000000000e-03
1191, 8.202091535429e-04, -1.241289092481e-03, 7.500000000000e-03
1192, 1.640418307086e-03, -1.214781644759e-03, 7.500000000000e-03
1193, 2.460627460629e-03, -1.169267933367e-03, 7.500000000000e-03
1194, 3.280836614172e-03, -1.102396379610e-03, 7.500000000000e-03
1195, 4.101045767714e-03, -1.009933303628e-03, 7.500000000000e-03
1196, 4.921254921257e-03, -8.838834764832e-04, 7.500000000000e-03
1197, -4.980430453284e-03, -4.419417382416e-04, 7.500000000000e-03
1198, -4.150358711070e-03, -5.049666518142e-04, 7.500000000000e-03
1199, -3.320286968856e-03, -5.511981898051e-04, 7.500000000000e-03
1200, -2.490215226642e-03, -5.846339666834e-04, 7.500000000000e-03
1201, -1.660143484428e-03, -6.073908223797e-04, 7.500000000000e-03
1202, -8.300717422140e-04, -6.206445462403e-04, 7.500000000000e-03
1203, 0.000000000000e+00, -6.250000000000e-04, 7.500000000000e-03
1204, 8.300717422140e-04, -6.206445462403e-04, 7.500000000000e-03
1205, 1.660143484428e-03, -6.073908223797e-04, 7.500000000000e-03
1206, 2.490215226642e-03, -5.846339666834e-04, 7.500000000000e-03
1207, 3.320286968856e-03, -5.511981898051e-04, 7.500000000000e-03
1208, 4.150358711070e-03, -5.049666518142e-04, 7.500000000000e-03
1209, 4.980430453284e-03, -4.419417382416e-04, 7.500000000000e-03
1210, -5.000000000000e-03, 0.000000000000e+00, 7.500000000000e-03
1211, -4.166666666667e-03, 0.000000000000e+00, 7.500000000000e-03
1212, -3.333333333333e-03, 0.000000000000e+00, 7.500000000000e-03
1213, -2.500000000000e-03, 0.000000000000e+00, 7.500000000000e-03
1214, -1.666666666667e-03, 0.000000000000e+00, 7.500000000000e-03
1215, -8.333333333333e-04, 0.000000000000e+00, 7.500000000000e-03
1216, 0.000000000000e+00, 0.000000000000e+00, 7.500000000000e-03
1217, 8.333333333333e-04, 0.000000000000e+00, 7.500000000000e-03
1218, 1.666666666667e-03, 0.000000000000e+00, 7.500000000000e-03
1219, 2.500000000000e-03, 0.000000000000e+00, 7.500000000000e-03
1220, 3.333333333333e-03, 0.000000000000e+00, 7.500000000000e-03
1221, 4.166666666667e-03, 0.000000000000e+00, 7.500000000000e-03
1222, 5.000000000000e-03, 0.000000000000e+00, 7.500000000000e-03
1223, -4.980430453284e-03, 4.419417382416e-04, 7.500000000000e-03
1224, -4.150358711070e-03, 5.049666518142e-04, 7.500000000000e-03
1225, -3.320286968856e-03, 5.511981898051e-04, 7.500000000000e-03
1226, -2.490215226642e-03, 5.846339666834e-04, 7.500000000000e-03
1227, -1.660143484428e-03, 6.073908223797e-04, 7.500000000000e-03
1228, -8.300717422140e-04, 6.206445462403e-04, 7.500000000000e-03
1229, 0.000000000000e+00, 6.250000000000e-04, 7.500000000000e-03
1230, 8.300717422140e-04, 6.206445462403e-04, 7.500000000000e-03
1231, 1.660143484428e-03, 6.073908223797e-04, 7.500000000000e-03
1232, 2.490215226642e-03, 5.846339666834e-04, 7.500000000000e-03
1233, 3.320286968856e-03, 5.511981898051e-04, 7.500000000000e-03
1234, 4.150358711070e-03, 5.049666518142e-04, 7.500000000000e-03
1235, 4.980430453284e-03, 4.419417382416e-04, 7.500000000000e-03
1236, -4.921254921257e-03, 8.838834764832e-04, 7.500000000000e-03
1237, -4.101045767714e-03, 1.009933303628e-03, 7.500000000000e-03
1238, -3.280836614172e-03, 1.102396379610e-03, 7.500000000000e-03
1239, -2.460627460629e-03, 1.169267933367e-03, 7.500000000000e-03
1240, -1.640418307086e-03, 1.214781644759e-03, 7.500000000000e-03
1241, -8.202091535429e-04, 1.241289092481e-03, 7.500000000000e-03
1242, 0.000000000000e+00, 1.250000000000e-03, 7.500000000000e-03
1243, 8.202091535429e-04, 1.241289092481e-03, 7.500000000000e-03
1244, 1.640418307086e-03, 1.214781644759e-03, 7.500000000000e-03
1245, 2.460627460629e-03, 1.169267933367e-03, 7.500000000000e-03
1246, 3.280836614172e-03, 1.102396379610e-03, 7.500000000000e-03
1247, 4.101045767714e-03, 1.009933303628e-03, 7.500000000000e-03
1248, 4.921254921257e-03, 8.838834764832e-04, 7.500000000000e-03
1249, -4.821015193919e-03, 1.325825214725e-03, 7.500000000000e-03
1250, -4.017512661599e-03, 1.514899955443e-03, 7.500000000000e-03
1251, -3.214010129279e-03, 1.653594569415e-03, 7.500000000000e-03
1252, -2.410507596960e-03, 1.753901900050e-03, 7.500000000000e-03
1253, -1.607005064640e-03, 1.822172467139e-03, 7.500000000000e-03
1254, -8.035025323199e-04, 1.861933638721e-03, 7.500000000000e-03
1255, 0.000000000000e+00, 1.875000000000e-03, 7.500000000000e-03
1256, 8.035025323199e-04, 1.861933638721e-03, 7.500000000000e-03
1257, 1.607005064640e-03, 1.822172467139e-03, 7.500000000000e-03
1258, 2.410507596960e-03, 1.753901900050e-03, 7.500000000000e-03
1259, 3.214010129279e-03, 1.653594569415e-03, 7.500000000000e-03
1260, 4.017512661599e-03, 1.514899955443e-03, 7.500000000000e-03
1261, 4.821015193919e-03, 1.325825214725e-03, 7.500000000000e-03
1262, -4.677071733467e-03, 1.767766952966e-03, 7.500000000000e-03
1263, -3.897559777890e-03, 2.019866607257e-03, 7.500000000000e-03
1264, -3.118047822312e-03, 2.204792759220e-03, 7.500000000000e-03
1265, -2.338535866734e-03, 2.338535866734e-03, 7.500000000000e-03
1266, -1.559023911156e-03, 2.429563289519e-03, 7.500000000000e-03
1267, -7.795119555779e-04, 2.482578184961e-03, 7.500000000000e-03
1268, 0.000000000000e+00, 2.500000000000e-03, 7.500000000000e-03
1269, 7.795119555779e-04, 2.482578184961e-03, 7.500000000000e-03
1270, 1.559023911156e-03, 2.429563289519e-03, 7.500000000000e-03
1271, 2.338535866734e-03, 2.338535866734e-03, 7.500000000000e-03
1272, 3.118047822312e-03, 2.204792759220e-03, 7.500000000000e-03
1273, 3.897559777890e-03, 2.019866607257e-03, 7.500000000000e-03
1274, 4.677071733467e-03, 1.767766952966e-03, 7.500000000000e-03
1275, -4.485218779502e-03, 2.209708691208e-03, 7.500000000000e-03
1276, -3.737682316252e-03, 2.524833259071e-03, 7.500000000000e-03
1277, -2.990145853002e-03, 2.755990949026e-03, 7.500000000000e-03
1278, -2.242609389751e-03, 2.923169833417e-03, 7.500000000000e-03
1279, -1.495072926501e-03, 3.036954111899e-03, 7.500000000000e-03
1280, -7.475364632504e-04, 3.103222731201e-03, 7.500000000000e-03
1281, 0.000000000000e+00, 3.125000000000e-03, 7.500000000000e-03
1282, 7.475364632504e-04, 3.103222731201e-03, 7.500000000000e-03
1283, 1.495072926501e-03, 3.036954111899e-03, 7.500000000000e-03
1284, 2.242609389751e-03, 2.923169833417e-03, 7.500000000000e-03
1285, 2.990145853002e-03, 2.755990949026e-03, 7.500000000000e-03
1286, 3.737682316252e-03, 2.524833259071e-03, 7.500000000000e-03
1287, 4.485218779502e-03, 2.209708691208e-03, 7.500000000000e-03
1288, -4.238956239453e-03, 2.651650429450e-03, 7.500000000000e-03
1289, -3.532463532878e-03, 3.029799910885e-03, 7.500000000000e-03
1290, -2.825970826302e-03, 3.307189138831e-03, 7.500000000000e-03
1291, -2.119478119727e-03, 3.507803800101e-03, 7.500000000000e-03
1292, -1.412985413151e-03, 3.644344934278e-03, 7.500000000000e-03
1293, -7.064927065755e-04, 3.723867277442e-03, 7.500000000000e-03
1294, 0.000000000000e+00, 3.750000000000e-03, 7.500000000000e-03
1295, 7.064927065755e-04, 3.723867277442e-03, 7.500000000000e-03
1296, 1.412985413151e-03, 3.644344934278e-03, 7.500000000000e-03
1297, 2.119478119727e-03, 3.507803800101e-03, 7.500000000000e-03
1298, 2.825970826302e-03, 3.307189138831e-03, 7.500000000000e-03
1299, 3.532463532878e-03, 3.029799910885e-03, 7.500000000000e-03
1300, 4.238956239453e-03, 2.651650429450e-03, 7.500000000000e-03
1301, -3.928064090618e-03, 3.093592167691e-03, 7.500000000000e-03
1302, -3.273386742181e-03, 3.534766562699e-03, 7.500000000000e-03
1303, -2.618709393745e-03, 3.858387328636e-03, 7.500000000000e-03
1304, -1.964032045309e-03, 4.092437766784e-03, 7.500000000000e-03
1305, -1.309354696873e-03, 4.251735756658e-03, 7.500000000000e-03
1306, -6.546773484363e-04, 4.344511823682e-03, 7.500000000000e-03
1307, 0.000000000000e+00, 4.375000000000e-03, 7.500000000000e-03
1308, 6.546773484363e-04, 4.344511823682e-03, 7.500000000000e-03
1309, 1.309354696873e-03, 4.251735756658e-03, 7.500000000000e-03
1310, 1.964032045309e-03, 4.092437766784e-03, 7.500000000000e-03
1311, 2.618709393745e-03, 3.858387328636e-03, 7.500000000000e-03
1312, 3.273386742181e-03, 3.534766562699e-03, 7.500000000000e-03
1313, 3.928064090618e-03, 3.093592167691e-03, 7.500000000000e-03
1314, -3.535533905933e-03, 3.535533905933e-03, 7.500000000000e-03
1315, -2.946278254944e-03, 4.039733214514e-03, 7.500000000000e-03
1316, -2.357022603955e-03, 4.409585518441e-03, 7.500000000000e-03
1317, -1.767766952966e-03, 4.677071733467e-03, 7.500000000000e-03
1318, -1.178511301978e-03, 4.859126579038e-03, 7.500000000000e-03
1319, -5.892556509888e-04, 4.965156369922e-03, 7.500000000000e-03
1320, 0.000000000000e+00, 5.000000000000e-03, 7.500000000000e-03
1321, 5.892556509888e-04, 4.965156369922e-03, 7.500000000000e-03
1322, 1.178511301978e-03, 4.859126579038e-03, 7.500000000000e-03
1323, 1.767766952966e-03, 4.677071733467e-03, 7.500000000000e-03
1324, 2.357022603955e-03, 4.409585518441e-03, 7.500000000000e-03
1325, 2.946278254944e-03, 4.039733214514e-03, 7.500000000000e-03
1326, 3.535533905933e-03, 3.535533905933e-03, 7.500000000000e-03
1327, -3.535533905933e-03, -3.535533905933e-03, 9.000000000000e-03
1328, -2.946278254944e-03, -4.039733214514e-03, 9.000000000000e-03
1329, -2.357022603955e-03, -4.409585518441e-03, 9.000000000000e-03
1330, -1.767766952966e-03, -4.677071733467e-03, 9.000000000000e-03
1331, -1.178511301978e-03, -4.859126579038e-03, 9.000000000000e-03
1332, -5.892556509888e-04, -4.965156369922e-03, 9.000000000000e-03
1333, 0.000000000000e+00, -5.000000000000e-03, 9.000000000000e-03
1334, 5.892556509888e-04, -4.965156369922e-03, 9.000000000000e-03
1335, 1.178511301978e-03, -4.859126579038e-03, 9.000000000000e-03
1336, 1.767766952966e-03, -4.677071733467e-03, 9.000000000000e-03
1337, 2.357022603955e-03, -4.409585518441e-03, 9.000000000000e-03
1338, 2.946278254944e-03, -4.039733214514e-03, 9.000000000000e-03
1339, 3.535533905933e-03, -3.535533905933e-03, 9.000000000000e-03
1340, -3.928064090618e-03, -3.093592167691e-03, 9.000000000000e-03
1341, -3.273386742181e-03, -3.534766562699e-03, 9.000000000000e-03
1342, -2.618709393745e-03, -3.858387328636e-03, 9.000000000000e-03
1343, -1.964032045309e-03, -4.092437766784e-03, 9.000000000000e-03
1344, -1.309354696873e-03, -4.251735756658e-03, 9.000000000000e-03
1345, -6.546773484363e-04, -4.344511823682e-03, 9.000000000000e-03
1346, 0.000000000000e+00, -4.375000000000e-03, 9.000000000000e-03
1347, 6.546773484363e-04, -4.344511823682e-03, 9.000000000000e-03
1348, 1.309354696873e-03, -4.251735756658e-03, 9.000000000000e-03
1349, 1.964032045309e-03, -4.092437766784e-03, 9.000000000000e-03
1350, 2.618709393745e-03, -3.858387328636e-03, 9.000000000000e-03
1351, 3.273386742181e-03, -3.534766562699e-03, 9.000000000000e-03
1352, 3.928064090618e-03, -3.093592167691e-03, 9.000000000000e-03
1353, -4.238956239453e-03, -2.651650429450e-03, 9.000000000000e-03
1354, -3.532463532878e-03, -3.029799910885e-03, 9.000000000000e-03
1355, -2.825970826302e-03, -3.307189138831e-03, 9.000000000000e-03
1356, -2.119478119727e-03, -3.507803800101e-03, 9.000000000000e-03
1357, -1.412985413151e-03, -3.644344934278e-03, 9.000000000000e-03
1358, -7.064927065755e-04, -3.723867277442e-03, 9.000000000000e-03
1359, 0.000000000000e+00, -3.750000000000e-03, 9.000000000000e-03
1360, 7.064927065755e-04, -3.723867277442e-03, 9.000000000000e-03
1361, 1.412985413151e-03, -3.644344934278e-03, 9.000000000000e-03
1362, 2.119478119727e-03, -3.507803800101e-03, 9.000000000000e-03
1363, 2.825970826302e-03, -3.307189138831e-03, 9.000000000000e-03
1364, 3.532463532878e-03, -3.029799910885e-03, 9.000000000000e-03
1365, 4.238956239453e-03, -2.651650429450e-03, 9.000000000000e-03
1366, -4.485218779502e-03, -2.209708691208e-03, 9.000000000000e-03
1367, -3.737682316252e-03, -2.524833259071e-03, 9.000000000000e-03
1368, -2.990145853002e-03, -2.755990949026e-03, 9.000000000000e-03
1369, -2.242609389751e-03, -2.923169833417e-03, 9.000000000000e-03
1370, -1.495072926501e-03, -3.036954111899e-03, 9.000000000000e-03
1371, -7.475364632504e-04, -3.103222731201e-03, 9.000000000000e-03
1372, 0.000000000000e+00, -3.125000000000e-03, 9.000000000000e-03
1373, 7.475364632504e-04, -3.103222731201e-03, 9.000000000000e-03
1374, 1.495072926501e-03, -3.036954111899e-03, 9.000000000000e-03
1375, 2.242609389751e-03, -2.923169833417e-03, 9.000000000000e-03
1376, 2.990145853002e-03, -2.755990949026e-03, 9.000000000000e-03
1377, 3.737682316252e-03, -2.524833259071e-03, 9.000000000000e-03
1378, 4.485218779502e-03, -2.209708691208e-03, 9.000000000000e-03
1379, -4.677071733467e-03, -1.767766952966e-03, 9.000000000000e-03
1380, -3.897559777890e-03, -2.019866607257e-03, 9.000000000000e-03
1381, -3.118047822312e-03, -2.204792759220e-03, 9.000000000000e-03
1382, -2.338535866734e-03, -2.338535866734e-03, 9.000000000000e-03
1383, -1.559023911156e-03, -2.429563289519e-03, 9.000000000000e-03
1384, -7.795119555779e-04, -2.482578184961e-03, 9.000000000000e-03
1385, 0.000000000000e+00, -2.500000000000e-03, 9.000000000000e-03
1386, 7.795119555779e-04, -2.482578184961e-03, 9.000000000000e-03
1387, 1.559023911156e-03, -2.429563289519e-03, 9.000000000000e-03
1388, 2.338535866734e-03, -2.338535866734e-03, 9.000000000000e-03
1389, 3.118047822312e-03, -2.204792759220e-03, 9.000000000000e-03
1390, 3.897559777890e-03, -2.019866607257e-03, 9.000000000000e-03
1391, 4.677071733467e-03, -1.767766952966e-03, 9.000000000000e-03
1392, -4.821015193919e-03, -1.325825214725e-03, 9.000000000000e-03
1393, -4.017512661599e-03, -1.514899955443e-03, 9.000000000000e-03
1394, -3.214010129279e-03, -1.653594569415e-03, 9.000000000000e-03
1395, -2.410507596960e-03, -1.753901900050e-03, 9.000000000000e-03
1396, -1.607005064640e-03, -1.822172467139e-03, 9.000000000000e-03
1397, -8.035025323199e-04, -1.861933638721e-03, 9.000000000000e-03
1398, 0.000000000000e+00, -1.875000000000e-03, 9.000000000000e-03
1399, 8.035025323199e-04, -1.861933638721e-03, 9.000000000000e-03
1400, 1.607005064640e-03, -1.822172467139e-03, 9.000000000000e-03
1401, 2.410507596960e-03, -1.753901900050e-03, 9.000000000000e-03
1402, 3.214010129279e-03, -1.653594569415e-03, 9.000000000000e-03
1403, 4.017512661599e-03, -1.514899955443e-03, 9.000000000000e-03
1404, 4.821015193919e-03, -1.325825214725e-03, 9.000000000000e-03
1405, -4.921254921257e-03, -8.838834764832e-04, 9.000000000000e-03
1406, -4.101045767714e-03, -1.009933303628e-03, 9.000000000000e-03
1407, -3.280836614172e-03, -1.102396379610e-03, 9.000000000000e-03
1408, -2.460627460629e-03, -1.169267933367e-03, 9.000000000000e-03
1409, -1.640418307086e-03, -1.214781644759e-03, 9.000000000000e-03
1410, -8.202091535429e-04, -1.241289092481e-03, 9.000000000000e-03
1411, 0.000000000000e+00, -1.250000000000e-03, 9.000000000000e-03
1412, 8.202091535429e-04, -1.241289092481e-03, 9.000000000000e-03
1413, 1.640418307086e-03, -1.214781644759e-03, 9.000000000000e-03
1414, 2.460627460629e-03, -1.169267933367e-03, 9.000000000000e-03
1415, 3.280836614172e-03, -1.102396379610e-03, 9.000000000000e-03
1416, 4.101045767714e-03, -1.009933303628e-03, 9.000000000000e-03
1417, 4.921254921257e-03, -8.838834764832e-04, 9.000000000000e-03
1418, -4.980430453284e-03, -4.419417382416e-04, 9.000000000000e-03
1419, -4.150358711070e-03, -5.049666518142e-04, 9.000000000000e-03
1420, -3.320286968856e-03, -5.511981898051e-04, 9.000000000000e-03
1421, -2.490215226642e-03, -5.846339666834e-04, 9.000000000000e-03
1422, -1.660143484428e-03, -6.073908223797e-04, 9.000000000000e-03
1423, -8.300717422140e-04, -6.206445462403e-04, 9.000000000000e-03
1424, 0.000000000000e+00, -6.250000000000e-04, 9.000000000000e-03
1425, 8.300717422140e-04, -6.206445462403e-04, 9.000000000000e-03
1426, 1.660143484428e-03, -6.073908223797e-04, 9.000000000000e-03
1427, 2.490215226642e-03, -5.846339666834e-04, 9.000000000000e-03
1428, 3.320286968856e-03, -5.511981898051e-04, 9.000000000000e-03
1429, 4.150358711070e-03, -5.049666518142e-04, 9.000000000000e-03
1430, 4.980430453284e-03, -4.419417382416e-04, 9.000000000000e-03
1431, -5.000000000000e-03, 0.000000000000e+00, 9.000000000000e-03
1432, -4.166666666667e-03, 0.000000000000e+00, 9.000000000000e-03
1433, -3.333333333333e-03, 0.000000000000e+00, 9.000000000000e-03
1434, -2.500000000000e-03, 0.000000000000e+00, 9.000000000000e-03
1435, -1.666666666667e-03, 0.000000000000e+00, 9.000000000000e-03
1436, -8.333333333333e-04, 0.000000000000e+00, 9.000000000000e-03
1437, 0.000000000000e+00, 0.000000000000e+00, 9.000000000000e-03
1438, 8.333333333333e-04, 0.000000000000e+00, 9.000000000000e-03
1439, 1.666666666667e-03, 0.000000000000e+00, 9.000000000000e-03
1440, 2.500000000000e-03, 0.000000000000e+00, 9.000000000000e-03
1441, 3.333333333333e-03, 0.000000000000e+00, 9.000000000000e-03
1442, 4.166666666667e-03, 0.000000000000e+00, 9.000000000000e-03
1443, 5.000000000000e-03, 0.000000000000e+00, 9.000000000000e-03
1444, -4.980430453284e-03, 4.419417382416e-04, 9.000000000000e-03
1445, -4.150358711070e-03, 5.049666518142e-04, 9.000000000000e-03
1446, -3.320286968856e-03, 5.511981898051e-04, 9.000000000000e-03
1447, -2.490215226642e-03, 5.846339666834e-04, 9.000000000000e-03
1448, -1.660143484428e-03, 6.073908223797e-04, 9.000000000000e-03
1449, -8.300717422140e-04, 6.206445462403e-04, 9.000000000000e-03
1450, 0.000000000000e+00, 6.250000000000e-04, 9.000000000000e-03
1451, 8.300717422140e-04, 6.206445462403e-04, 9.000000000000e-03
1452, 1.660143484428e-03, 6.073908223797e-04, 9.000000000000e-03
1453, 2.490215226642e-03, 5.846339666834e-04, 9.000000000000e-03
1454, 3.320286968856e-03, 5.511981898051e-04, 9.000000000000e-03
1455, 4.150358711070e-03, 5.049666518142e-04, 9.000000000000e-03
1456, 4.980430453284e-03, 4.419417382416e-04, 9.000000000000e-03
1457, -4.921254921257e-03, 8.838834764832e-04, 9.000000000000e-03
1458, -4.101045767714e-03, 1.009933303628e-03, 9.000000000000e-03
1459, -3.280836614172e-03, 1.102396379610e-03, 9.000000000000e-03
1460, -2.460627460629e-03, 1.169267933367e-03, 9.000000000000e-03
1461, -1.640418307086e-03, 1.214781644759e-03, 9.000000000000e-03
1462, -8.202091535429e-04, 1.241289092481e-03, 9.000000000000e-03
1463, 0.000000000000e+00, 1.250000000000e-03, 9.000000000000e-03
1464, 8.202091535429e-04, 1.241289092481e-03, 9.000000000000e-03
1465, 1.640418307086e-03, 1.214781644759e-03, 9.000000000000e-03
1466, 2.460627460629e-03, 1.169267933367e-03, 9.000000000000e-03
1467, 3.280836614172e-03, 1.102396379610e-03, 9.000000000000e-03
1468, 4.101045767714e-03, 1.009933303628e-03, 9.000000000000e-03
1469, 4.921254921257e-03, 8.838834764832e-04, 9.000000000000e-03
1470, -4.821015193919e-03, 1.325825214725e-03, 9.000000000000e-03
1471, -4.017512661599e-03, 1.514899955443e-03, 9.000000000000e-03
1472, -3.214010129279e-03, 1.653594569415e-03, 9.000000000000e-03
1473, -2.410507596960e-03, 1.753901900050e-03, 9.000000000000e-03
1474, -1.607005064640e-03, 1.822172467139e-03, 9.000000000000e-03
1475, -8.035025323199e-04, 1.861933638721e-03, 9.000000000000e-03
1476, 0.000000000000e+00, 1.875000000000e-03, 9.000000000000e-03
1477, 8.035025323199e-04, 1.861933638721e-03, 9.000000000000e-03
1478, 1.607005064640e-03, 1.822172467139e-03, 9.000000000000e-03
1479, 2.410507596960e-03, 1.753901900050e-03, 9.000000000000e-03
1480, 3.214010129279e-03, 1.653594569415e-03, 9.000000000000e-03
1481, 4.017512661599e-03, 1.514899955443e-03, 9.000000000000e-03
1482, 4.821015193919e-03, 1.325825214725e-03, 9.000000000000e-03
1483, -4.677071733467e-03, 1.767766952966e-03, 9.000000000000e-03
1484, -3.897559777890e-03, 2.019866607257e-03, 9.000000000000e-03
1485, -3.118047822312e-03, 2.204792759220e-03, 9.000000000000e-03
1486, -2.338535866734e-03, 2.338535866734e-03, 9.000000000000e-03
1487, -1.559023911156e-03, 2.429563289519e-03, 9.000000000000e-03
1488, -7.795119555779e-04, 2.482578184961e-03, 9.000000000000e-03
1489, 0.000000000000e+00, 2.500000000000e-03, 9.000000000000e-03
1490, 7.795119555779e-04, 2.482578184961e-03, 9.000000000000e-03
1491, 1.559023911156e-03, 2.429563289519e-03, 9.000000000000e-03
1492, 2.338535866734e-03, 2.338535866734e-03, 9.000000000000e-03
1493, 3.118047822312e-03, 2.204792759220e-03, 9.000000000000e-03
1494, 3.897559777890e-03, 2.019866607257e-03, 9.000000000000e-03
1495, 4.677071733467e-03, 1.767766952966e-03, 9.000000000000e-03
1496, -4.485218779502e-03, 2.209708691208e-03, 9.000000000000e-03
1497, -3.737682316252e-03, 2.524833259071e-03, 9.000000000000e-03
1498, -2.990145853002e-03, 2.755990949026e-03, 9.000000000000e-03
1499, -2.242609389751e-03, 2.923169833417e-03, 9.000000000000e-03
1500, -1.495072926501e-03, 3.036954111899e-03, 9.000000000000e-03
1501, -7.475364632504e-04, 3.103222731201e-03, 9.000000000000e-03
1502, 0.000000000000e+00, 3.125000000000e-03, 9.000000000000e-03
1503, 7.475364632504e-04, 3.103222731201e-03, 9.000000000000e-03
1504, 1.495072926501e-03, 3.036954111899e-03, 9.000000000000e-03
1505, 2.242609389751e-03, 2.923169833417e-03, 9.000000000000e-03
1506, 2.990145853002e-03, 2.755990949026e-03, 9.000000000000e-03
1507, 3.737682316252e-03, 2.524833259071e-03, 9.000000000000e-03
1508, 4.485218779502e-03, 2.209708691208e-03, 9.000000000000e-03
1509, -4.238956239453e-03, 2.651650429450e-03, 9.000000000000e-03
1510, -3.532463532878e-03, 3.029799910885e-03, 9.000000000000e-03
1511, -2.825970826302e-03, 3.307189138831e-03, 9.000000000000e-03
1512, -2.119478119727e-03, 3.507803800101e-03, 9.000000000000e-03
1513, -1.412985413151e-03, 3.644344934278e-03, 9.000000000000e-03
1514, -7.064927065755e-04, 3.723867277442e-03, 9.000000000000e-03
1515, 0.000000000000e+00, 3.750000000000e-03, 9.000000000000e-03
1516, 7.064927065755e-04, 3.723867277442e-03, 9.000000000000e-03
1517, 1.412985413151e-03, 3.644344934278e-03, 9.000000000000e-03
1518, 2.119478119727e-03, 3.507803800101e-03, 9.000000000000e-03
1519, 2.825970826302e-03, 3.307189138831e-03, 9.000000000000e-03
1520, 3.532463532878e-03, 3.029799910885e-03, 9.000000000000e-03
1521, 4.238956239453e-03, 2.651650429450e-03, 9.000000000000e-03
1522, -3.928064090618e-03, 3.093592167691e-03, 9.000000000000e-03
1523, -3.273386742181e-03, 3.534766562699e-03, 9.000000000000e-03
1524, -2.618709393745e-03, 3.858387328636e-03, 9.000000000000e-03
1525, -1.964032045309e-03, 4.092437766784e-03, 9.000000000000e-03
1526, -1.309354696873e-03, 4.251735756658e-03, 9.000000000000e-03
1527, -6.546773484363e-04, 4.344511823682e-03, 9.000000000000e-03
1528, 0.000000000000e+00, 4.375000000000e-03, 9.000000000000e-03
1529, 6.546773484363e-04, 4.344511823682e-03, 9.000000000000e-03
1530, 1.309354696873e-03, 4.251735756658e-03, 9.000000000000e-03
1531, 1.964032045309e-03, 4.092437766784e-03, 9.000000000000e-03
1532, 2.618709393745e-03, 3.858387328636e-03, 9.000000000000e-03
1533, 3.273386742181e-03, 3.534766562699e-03, 9.000000000000e-03
1534, 3.928064090618e-03, 3.093592167691e-03, 9.000000000000e-03
1535, -3.535533905933e-03, 3.535533905933e-03, 9.000000000000e-03
1536, -2.946278254944e-03, 4.039733214514e-03, 9.000000000000e-03
1537, -2.357022603955e-03, 4.409585518441e-03, 9.000000000000e-03
1538, -1.767766952966e-03, 4.677071733467e-03, 9.000000000000e-03
1539, -1.178511301978e-03, 4.859126579038e-03, 9.000000000000e-03
1540, -5.892556509888e-04, 4.965156369922e-03, 9.000000000000e-03
1541, 0.000000000000e+00, 5.000000000000e-03, 9.000000000000e-03
1542, 5.892556509888e-04, 4.965156369922e-03, 9.000000000000e-03
1543, 1.178511301978e-03, 4.859126579038e-03, 9.000000000000e-03
1544, 1.767766952966e-03, 4.677071733467e-03, 9.000000000000e-03
1545, 2.357022603955e-03, 4.409585518441e-03, 9.000000000000e-03
1546, 2.946278254944e-03, 4.039733214514e-03, 9.000000000000e-03
1547, 3.535533905933e-03, 3.535533905933e-03, 9.000000000000e-03
1548, -3.535533905933e-03, -3.535533905933e-03, 1.050000000000e-02
1549, -2.946278254944e-03, -4.039733214514e-03, 1.050000000000e-02
1550, -2.357022603955e-03, -4.409585518441e-03, 1.050000000000e-02
1551, -1.767766952966e-03, -4.677071733467e-03, 1.050000000000e-02
1552, -1.178511301978e-03, -4.859126579038e-03, 1.050000000000e-02
1553, -5.892556509888e-04, -4.965156369922e-03, 1.050000000000e-02
1554, 0.000000000000e+00, -5.000000000000e-03, 1.050000000000e-02
1555, 5.892556509888e-04, -4.965156369922e-03, 1.050000000000e-02
1556, 1.178511301978e-03, -4.859126579038e-03, 1.050000000000e-02
1557, 1.767766952966e-03, -4.677071733467e-03, 1.050000000000e-02
1558, 2.357022603955e-03, -4.409585518441e-03, 1.050000000000e-02
1559, 2.946278254944e-03, -4.039733214514e-03, 1.050000000000e-02
1560, 3.535533905933e-03, -3.535533905933e-03, 1.050000000000e-02
1561, -3.928064090618e-03, -3.093592167691e-03, 1.050000000000e-02
1562, -3.273386742181e-03, -3.534766562699e-03, 1.050000000000e-02
1563, -2.618709393745e-03, -3.858387328636e-03, 1.050000000000e-02
1564, -1.964032045309e-03, -4.092437766784e-03, 1.050000000000e-02
1565, -1.309354696873e-03, -4.251735756658e-03, 1.050000000000e-02
1566, -6.546773484363e-04, -4.344511823682e-03, 1.050000000000e-02
1567, 0.000000000000e+00, -4.375000000000e-03, 1.050000000000e-02
1568, 6.546773484363e-04, -4.344511823682e-03, 1.050000000000e-02
1569, 1.309354696873e-03, -4.251735756658e-03, 1.050000000000e-02
1570, 1.964032045309e-03, -4.092437766784e-03, 1.050000000000e-02
1571, 2.618709393745e-03, -3.858387328636e-03, 1.050000000000e-02
1572, 3.273386742181e-03, -3.534766562699e-03, 1.050000000000e-02
1573, 3.928064090618e-03, -3.093592167691e-03, 1.050000000000e-02
1574, -4.238956239453e-03, -2.651650429450e-03, 1.050000000000e-02
1575, -3.532463532878e-03, -3.029799910885e-03, 1.050000000000e-02
1576, -2.825970826302e-03, -3.307189138831e-03, 1.050000000000e-02
1577, -2.119478119727e-03, -3.507803800101e-03, 1.050000000000e-02
1578, -1.412985413151e-03, -3.644344934278e-03, 1.050000000000e-02
1579, -7.064927065755e-04, -3.723867277442e-03, 1.050000000000e-02
1580, 0.000000000000e+00, -3.750000000000e-03, 1.050000000000e-02
1581, 7.064927065755e-04, -3.723867277442e-03, 1.050000000000e-02
1582, 1.412985413151e-03, -3.644344934278e-03, 1.050000000000e-02
1583, 2.119478119727e-03, -3.507803800101e-03, 1.050000000000e-02
1584, 2.825970826302e-03, -3.307189138831e-03, 1.050000000000e-02
1585, 3.532463532878e-03, -3.029799910885e-03, 1.050000000000e-02
1586, 4.238956239453e-03, -2.651650429450e-03, 1.050000000000e-02
1587, -4.485218779502e-03, -2.209708691208e-03, 1.050000000000e-02
1588, -3.737682316252e-03, -2.524833259071e-03, 1.050000000000e-02
1589, -2.990145853002e-03, -2.755990949026e-03, 1.050000000000e-02
1590, -2.242609389751e-03, -2.923169833417e-03, 1.050000000000e-02
1591, -1.495072926501e-03, -3.036954111899e-03, 1.050000000000e-02
1592, -7.475364632504e-04, -3.103222731201e-03, 1.050000000000e-02
1593, 0.000000000000e+00, -3.125000000000e-03, 1.050000000000e-02
1594, 7.475364632504e-04, -3.103222731201e-03, 1.050000000000e-02
1595, 1.495072926501e-03, -3.036954111899e-03, 1.050000000000e-02
1596, 2.242609389751e-03, -2.923169833417e-03, 1.050000000000e-02
1597, 2.990145853002e-03, -2.755990949026e-03, 1.050000000000e-02
1598, 3.737682316252e-03, -2.524833259071e-03, 1.050000000000e-02
1599, 4.485218779502e-03, -2.209708691208e-03, 1.050000000000e-02
1600, -4.677071733467e-03, -1.767766952966e-03, 1.050000000000e-02
1601, -3.897559777890e-03, -2.019866607257e-03, 1.050000000000e-02
1602, -3.118047822312e-03, -2.204792759220e-03, 1.050000000000e-02
1603, -2.338535866734e-03, -2.338535866734e-03, 1.050000000000e-02
1604, -1.559023911156e-03, -2.429563289519e-03, 1.050000000000e-02
1605, -7.795119555779e-04, -2.482578184961e-03, 1.050000000000e-02
1606, 0.000000000000e+00, -2.500000000000e-03, 1.050000000000e-02
1607, 7.795119555779e-04, -2.482578184961e-03, 1.050000000000e-02
1608, 1.559023911156e-03, -2.429563289519e-03, 1.050000000000e-02
1609, 2.338535866734e-03, -2.338535866734e-03, 1.050000000000e-02
1610, 3.118047822312e-03, -2.204792759220e-03, 1.050000000000e-02
1611, 3.897559777890e-03, -2.019866607257e-03, 1.050000000000e-02
1612, 4.677071733467e-03, -1.767766952966e-03, 1.050000000000e-02
1613, -4.821015193919e-03, -1.325825214725e-03, 1.050000000000e-02
1614, -4.017512661599e-03, -1.514899955443e-03, 1.050000000000e-02
1615, -3.214010129279e-03, -1.653594569415e-03, 1.050000000000e-02
1616, -2.410507596960e-03, -1.753901900050e-03, 1.050000000000e-02
1617, -1.607005064640e-03, -1.822172467139e-03, 1.050000000000e-02
1618, -8.035025323199e-04, -1.861933638721e-03, 1.050000000000e-02
1619, 0.000000000000e+00, -1.875000000000e-03, 1.050000000000e-02
1620, 8.035025323199e-04, -1.861933638721e-03, 1.050000000000e-02
1621, 1.607005064640e-03, -1.822172467139e-03, 1.050000000000e-02
1622, 2.410507596960e-03, -1.753901900050e-03, 1.050000000000e-02
1623, 3.214010129279e-03, -1.653594569415e-03, 1.050000000000e-02
1624, 4.017512661599e-03, -1.514899955443e-03, 1.050000000000e-02
1625, 4.821015193919e-03, -1.325825214725e-03, 1.050000000000e-02
1626, -4.921254921257e-03, -8.838834764832e-04, 1.050000000000e-02
1627, -4.101045767714e-03, -1.009933303628e-03, 1.050000000000e-02
1628, -3.280836614172e-03, -1.102396379610e-03, 1.050000000000e-02
1629, -2.460627460629e-03, -1.169267933367e-03, 1.050000000000e-02
1630, -1.640418307086e-03, -1.214781644759e-03, 1.050000000000e-02
1631, -8.202091535429e-04, -1.241289092481e-03, 1.050000000000e-02
1632, 0.000000000000e+00, -1.250000000000e-03, 1.050000000000e-02
1633, 8.202091535429e-04, -1.241289092481e-03, 1.050000000000e-02
1634, 1.640418307086e-03, -1.214781644759e-03, 1.050000000000e-02
1635, 2.460627460629e-03, -1.169267933367e-03, 1.050000000000e-02
1636, 3.280836614172e-03, -1.102396379610e-03, 1.050000000000e-02
1637, 4.101045767714e-03, -1.009933303628e-03, 1.050000000000e-02
1638, 4.921254921257e-03, -8.838834764832e-04, 1.050000000000e-02
1639, -4.980430453284e-03, -4.419417382416e-04, 1.050000000000e-02
1640, -4.150358711070e-03, -5.049666518142e-04, 1.050000000000e-02
1641, -3.320286968856e-03, -5.511981898051e-04, 1.050000000000e-02
1642, -2.490215226642e-03, -5.846339666834e-04, 1.050000000000e-02
1643, -1.660143484428e-03, -6.073908223797e-04, 1.050000000000e-02
1644, -8.300717422140e-04, -6.206445462403e-04, 1.050000000000e-02
1645, 0.000000000000e+00, -6.250000000000e-04, 1.050000000000e-02
1646, 8.300717422140e-04, -6.206445462403e-04, 1.050000000000e-02
1647, 1.660143484428e-03, -6.073908223797e-04, 1.050000000000e-02
1648, 2.490215226642e-03, -5.846339666834e-04, 1.050000000000e-02
1649, 3.320286968856e-03, -5.511981898051e-04, 1.050000000000e-02
1650, 4.150358711070e-03, -5.049666518142e-04, 1.050000000000e-02
1651, 4.980430453284e-03, -4.419417382416e-04, 1.050000000000e-02
1652, -5.000000000000e-03, 0.000000000000e+00, 1.050000000000e-02
1653, -4.166666666667e-03, 0.000000000000e+00, 1.050000000000e-02
1654, -3.333333333333e-03, 0.000000000000e+00, 1.050000000000e-02
1655, -2.500000000000e-03, 0.000000000000e+00, 1.050000000000e-02
1656, -1.666666666667e-03, 0.000000000000e+00, 1.050000000000e-02
1657, -8.333333333333e-04, 0.000000000000e+00, 1.050000000000e-02
1658, 0.000000000000e+00, 0.000000000000e+00, 1.050000000000e-02
1659, 8.333333333333e-04, 0.000000000000e+00, 1.050000000000e-02
1660, 1.666666666667e-03, 0.000000000000e+00, 1.050000000000e-02
1661, 2.500000000000e-03, 0.000000000000e+00, 1.050000000000e-02
1662, 3.333333333333e-03, 0.000000000000e+00, 1.050000000000e-02
1663, 4.166666666667e-03, 0.000000000000e+00, 1.050000000000e-02
1664, 5.000000000000e-03, 0.000000000000e+00, 1.050000000000e-02
1665, -4.980430453284e-03, 4.419417382416e-04, 1.050000000000e-02
1666, -4.150358711070e-03, 5.049666518142e-04, 1.050000000000e-02
1667, -3.320286968856e-03, 5.511981898051e-04, 1.050000000000e-02
1668, -2.490215226642e-03, 5.846339666834e-04, 1.050000000000e-02
1669, -1.660143484428e-03, 6.073908223797e-04, 1.050000000000e-02
1670, -8.300717422140e-04, 6.206445462403e-04, 1.050000000000e-02
1671, 0.000000000000e+00, 6.250000000000e-04, 1.050000000000e-02
1672, 8.300717422140e-04, 6.206445462403e-04, 1.050000000000e-02
1673, 1.660143484428e-03, 6.073908223797e-04, 1.050000000000e-02
1674, 2.490215226642e-03, 5.846339666834e-04, 1.050000000000e-02
1675, 3.320286968856e-03, 5.511981898051e-04, 1.050000000000e-02
1676, 4.150358711070e-03, 5.049666518142e-04, 1.050000000000e-02
1677, 4.980430453284e-03, 4.419417382416e-04, 1.050000000000e-02
1678, -4.921254921257e-03, 8.838834764832e-04, 1.050000000000e-02
1679, -4.101045767714e-03, 1.009933303628e-03, 1.050000000000e-02
1680, -3.280836614172e-03, 1.102396379610e-03, 1.050000000000e-02
1681, -2.460627460629e-03, 1.169267933367e-03, 1.050000000000e-02
1682, -1.640418307086e-03, 1.214781644759e-03, 1.050000000000e-02
1683, -8.202091535429e-04, 1.241289092481e-03, 1.050000000000e-02
1684, 0.000000000000e+00, 1.250000000000e-03, 1.050000000000e-02
1685, 8.202091535429e-04, 1.241289092481e-03, 1.050000000000e-02
1686, 1.640418307086e-03, 1.214781644759e-03, 1.050000000000e-02
1687, 2.460627460629e-03, 1.169267933367e-03, 1.050000000000e-02
1688, 3.280836614172e-03, 1.102396379610e-03, 1.050000000000e-02
1689, 4.101045767714e-03, 1.009933303628e-03, 1.050000000000e-02
1690, 4.921254921257e-03, 8.838834764832e-04, 1.050000000000e-02
1691, -4.821015193919e-03, 1.325825214725e-03, 1.050000000000e-02
1692, -4.017512661599e-03, 1.514899955443e-03, 1.050000000000e-02
1693, -3.214010129279e-03, 1.653594569415e-03, 1.050000000000e-02
1694, -2.410507596960e-03, 1.753901900050e-03, 1.050000000000e-02
1695, -1.607005064640e-03, 1.822172467139e-03, 1.050000000000e-02
1696, -8.035025323199e-04, 1.861933638721e-03, 1.050000000000e-02
1697, 0.000000000000e+00, 1.875000000000e-03, 1.050000000000e-02
1698, 8.035025323199e-04, 1.861933638721e-03, 1.050000000000e-02
1699, 1.607005064640e-03, 1.822172467139e-03, 1.050000000000e-02
1700, 2.410507596960e-03, 1.753901900050e-03, 1.050000000000e-02
1701, 3.214010129279e-03, 1.653594569415e-03, 1.050000000000e-02
1702, 4.017512661599e-03, 1.514899955443e-03, 1.050000000000e-02
1703, 4.821015193919e-03, 1.325825214725e-03, 1.050000000000e-02
1704, -4.677071733467e-03, 1.767766952966e-03, 1.050000000000e-02
1705, -3.897559777890e-03, 2.019866607257e-03, 1.050000000000e-02
1706, -3.118047822312e-03, 2.204792759220e-03, 1.050000000000e-02
1707, -2.338535866734e-03, 2.338535866734e-03, 1.050000000000e-02
1708, -1.559023911156e-03, 2.429563289519e-03, 1.050000000000e-02
1709, -7.795119555779e-04, 2.482578184961e-03, 1.050000000000e-02
1710, 0.000000000000e+00, 2.500000000000e-03, 1.050000000000e-02
1711, 7.795119555779e-04, 2.482578184961e-03, 1.050000000000e-02
1712, 1.559023911156e-03, 2.429563289519e-03, 1.050000000000e-02
1713, 2.338535866734e-03, 2.338535866734e-03, 1.050000000000e-02
1714, 3.118047822312e-03, 2.204792759220e-03, 1.050000000000e-02
1715, 3.897559777890e-03, 2.019866607257e-03, 1.050000000000e-02
1716, 4.677071733467e-03, 1.767766952966e-03, 1.050000000000e-02
1717, -4.485218779502e-03, 2.209708691208e-03, 1.050000000000e-02
1718, -3.737682316252e-03, 2.524833259071e-03, 1.050000000000e-02
1719, -2.990145853002e-03, 2.755990949026e-03, 1.050000000000e-02
1720, -2.242609389751e-03, 2.923169833417e-03, 1.050000000000e-02
1721, -1.495072926501e-03, 3.036954111899e-03, 1.050000000000e-02
1722, -7.475364632504e-04, 3.103222731201e-03, 1.050000000000e-02
1723, 0.000000000000e+00, 3.125000000000e-03, 1.050000000000e-02
1724, 7.475364632504e-04, 3.103222731201e-03, 1.050000000000e-02
1725, 1.495072926501e-03, 3.036954111899e-03, 1.050000000000e-02
1726, 2.242609389751e-03, 2.923169833417e-03, 1.050000000000e-02
1727, 2.990145853002e-03, 2.755990949026e-03, 1.050000000000e-02
1728, 3.737682316252e-03, 2.524833259071e-03, 1.050000000000e-02
1729, 4.485218779502e-03, 2.209708691208e-03, 1.050000000000e-02
1730, -4.238956239453e-03, 2.651650429450e-03, 1.050000000000e-02
1731, -3.532463532878e-03, 3.029799910885e-03, 1.050000000000e-02
1732, -2.825970826302e-03, 3.307189138831e-03, 1.050000000000e-02
1733, -2.119478119727e-03, 3.507803800101e-03, 1.050000000000e-02
1734, -1.412985413151e-03, 3.644344934278e-03, 1.050000000000e-02
1735, -7.064927065755e-04, 3.723867277442e-03, 1.050000000000e-02
1736, 0.000000000000e+00, 3.750000000000e-03, 1.050000000000e-02
1737, 7.064927065755e-04, 3.723867277442e-03, 1.050000000000e-02
1738, 1.412985413151e-03, 3.644344934278e-03, 1.050000000000e-02
1739, 2.119478119727e-03, 3.507803800101e-03, 1.050000000000e-02
1740, 2.825970826302e-03, 3.307189138831e-03, 1.050000000000e-02
1741, 3.532463532878e-03, 3.029799910885e-03, 1.050000000000e-02
1742, 4.238956239453e-03, 2.651650429450e-03, 1.050000000000e-02
1743, -3.928064090618e-03, 3.093592167691e-03, 1.050000000000e-02
1744, -3.273386742181e-03, 3.534766562699e-03, 1.050000000000e-02
1745, -2.618709393745e-03, 3.858387328636e-03, 1.050000000000e-02
1746, -1.964032045309e-03, 4.092437766784e-03, 1.050000000000e-02
1747, -1.309354696873e-03, 4.251735756658e-03, 1.050000000000e-02
1748, -6.546773484363e-04, 4.344511823682e-03, 1.050000000000e-02
1749, 0.000000000000e+00, 4.375000000000e-03, 1.050000000000e-02
1750, 6.546773484363e-04, 4.344511823682e-03, 1.050000000000e-02
1751, 1.309354696873e-03, 4.251735756658e-03, 1.050000000000e-02
1752, 1.964032045309e-03, 4.092437766784e-03, 1.050000000000e-02
1753, 2.618709393745e-03, 3.858387328636e-03, 1.050000000000e-02
1754, 3.273386742181e-03, 3.534766562699e-03, 1.050000000000e-02
1755, 3.928064090618e-03, 3.093592167691e-03, 1.050000000000e-02
1756, -3.535533905933e-03, 3.535533905933e-03, 1.050000000000e-02
1757, -2.946278254944e-03, 4.039733214514e-03, 1.050000000000e-02
1758, -2.357022603955e-03, 4.409585518441e-03, 1.050000000000e-02
1759, -1.767766952966e-03, 4.677071733467e-03, 1.050000000000e-02
1760, -1.178511301978e-03, 4.859126579038e-03, 1.050000000000e-02
1761, -5.892556509888e-04, 4.965156369922e-03, 1.050000000000e-02
1762, 0.000000000000e+00, 5.000000000000e-03, 1.050000000000e-02
1763, 5.892556509888e-04, 4.965156369922e-03, 1.050000000000e-02
1764, 1.178511301978e-03, 4.859126579038e-03, 1.050000000000e-02
1765, 1.767766952966e-03, 4.677071733467e-03, 1.050000000000e-02
1766, 2.357022603955e-03, 4.409585518441e-03, 1.050000000000e-02
1767, 2.946278254944e-03, 4.039733214514e-03, 1.050000000000e-02
1768, 3.535533905933e-03, 3.535533905933e-03, 1.050000000000e-02
1769, -3.535533905933e-03, -3.535533905933e-03, 1.200000000000e-02
1770, -2.946278254944e-03, -4.039733214514e-03, 1.200000000000e-02
1771, -2.357022603955e-03, -4.409585518441e-03, 1.200000000000e-02
1772, -1.767766952966e-03, -4.677071733467e-03, 1.200000000000e-02
1773, -1.178511301978e-03, -4.859126579038e-03, 1.200000000000e-02
1774, -5.892556509888e-04, -4.965156369922e-03, 1.200000000000e-02
1775, 0.000000000000e+00, -5.000000000000e-03, 1.200000000000e-02
1776, 5.892556509888e-04, -4.965156369922e-03, 1.200000000000e-02
1777, 1.178511301978e-03, -4.859126579038e-03, 1.200000000000e-02
1778, 1.767766952966e-03, -4.677071733467e-03, 1.200000000000e-02
1779, 2.357022603955e-03, -4.409585518441e-03, 1.200000000000e-02
1780, 2.946278254944e-03, -4.039733214514e-03, 1.200000000000e-02
1781, 3.535533905933e-03, -3.535533905933e-03, 1.200000000000e-02
1782, -3.928064090618e-03, -3.093592167691e-03, 1.200000000000e-02
1783, -3.273386742181e-03, -3.534766562699e-03, 1.200000000000e-02
1784, -2.618709393745e-03, -3.858387328636e-03, 1.200000000000e-02
1785, -1.964032045309e-03, -4.092437766784e-03, 1.200000000000e-02
1786, -1.309354696873e-03, -4.251735756658e-03, 1.200000000000e-02
1787, -6.546773484363e-04, -4.344511823682e-03, 1.200000000000e-02
1788, 0.000000000000e+00, -4.375000000000e-03, 1.200000000000e-02
1789, 6.546773484363e-04, -4.344511823682e-03, 1.200000000000e-02
1790, 1.309354696873e-03, -4.251735756658e-03, 1.200000000000e-02
1791, 1.964032045309e-03, -4.092437766784e-03, 1.200000000000e-02
1792, 2.618709393745e-03, -3.858387328636e-03, 1.200000000000e-02
1793, 3.273386742181e-03, -3.534766562699e-03, 1.200000000000e-02
1794, 3.928064090618e-03, -3.093592167691e-03, 1.200000000000e-02
1795, -4.238956239453e-03, -2.651650429450e-03, 1.200000000000e-02
1796, -3.532463532878e-03, -3.029799910885e-03, 1.200000000000e-02
1797, -2.825970826302e-03, -3.307189138831e-03, 1.200000000000e-02
1798, -2.119478119727e-03, -3.507803800101e-03, 1.200000000000e-02
1799, -1.412985413151e-03, -3.644344934278e-03, 1.200000000000e-02
1800, -7.064927065755e-04, -3.723867277442e-03, 1.200000000000e-02
1801, 0.000000000000e+00, -3.750000000000e-03, 1.200000000000e-02
1802, 7.064927065755e-04, -3.723867277442e-03, 1.200000000000e-02
1803, 1.412985413151e-03, -3.644344934278e-03, 1.200000000000e-02
1804, 2.119478119727e-03, -3.507803800101e-03, 1.200000000000e-02
1805, 2.825970826302e-03, -3.307189138831e-03, 1.200000000000e-02
1806, 3.532463532878e-03, -3.029799910885e-03, 1.200000000000e-02
1807, 4.238956239453e-03, -2.651650429450e-03, 1.200000000000e-02
1808, -4.485218779502e-03, -2.209708691208e-03, 1.200000000000e-02
1809, -3.737682316252e-03, -2.524833259071e-03, 1.200000000000e-02
1810, -2.990145853002e-03, -2.755990949026e-03, 1.200000000000e-02
1811, -2.242609389751e-03, -2.923169833417e-03, 1.200000000000e-02
1812, -1.495072926501e-03, -3.036954111899e-03, 1.200000000000e-02
1813, -7.475364632504e-04, -3.103222731201e-03, 1.200000000000e-02
1814, 0.000000000000e+00, -3.125000000000e-03, 1.200000000000e-02
1815, 7.475364632504e-04, -3.103222731201e-03, 1.200000000000e-02
1816, 1.495072926501e-03, -3.036954111899e-03, 1.200000000000e-02
1817, 2.242609389751e-03, -2.923169833417e-03, 1.200000000000e-02
1818, 2.990145853002e-03, -2.755990949026e-03, 1.200000000000e-02
1819, 3.737682316252e-03, -2.524833259071e-03, 1.200000000000e-02
1820, 4.485218779502e-03, -2.209708691208e-03, 1.200000000000e-02
1821, -4.677071733467e-03, -1.767766952966e-03, 1.200000000000e-02
1822, -3.897559777890e-03, -2.019866607257e-03, 1.200000000000e-02
1823, -3.118047822312e-03, -2.204792759220e-03, 1.200000000000e-02
1824, -2.338535866734e-03, -2.338535866734e-03, 1.200000000000e-02
1825, -1.559023911156e-03, -2.429563289519e-03, 1.200000000000e-02
1826, -7.795119555779e-04, -2.482578184961e-03, 1.200000000000e-02
1827, 0.000000000000e+00, -2.500000000000e-03, 1.200000000000e-02
1828, 7.795119555779e-04, -2.482578184961e-03, 1.200000000000e-02
1829, 1.559023911156e-03, -2.429563289519e-03, 1.200000000000e-02
1830, 2.338535866734e-03, -2.338535866734e-03, 1.200000000000e-02
1831, 3.118047822312e-03, -2.204792759220e-03, 1.200000000000e-02
1832, 3.897559777890e-03, -2.019866607257e-03, 1.200000000000e-02
1833, 4.677071733467e-03, -1.767766952966e-03, 1.200000000000e-02
1834, -4.821015193919e-03, -1.325825214725e-03, 1.200000000000e-02
1835, -4.017512661599e-03, -1.514899955443e-03, 1.200000000000e-02
1836, -3.214010129279e-03, -1.653594569415e-03, 1.200000000000e-02
1837, -2.410507596960e-03, -1.753901900050e-03, 1.200000000000e-02
1838, -1.607005064640e-03, -1.822172467139e-03, 1.200000000000e-02
1839, -8.035025323199e-04, -1.861933638721e-03, 1.200000000000e-02
1840, 0.000000000000e+00, -1.875000000000e-03, 1.200000000000e-02
1841, 8.035025323199e-04, -1.861933638721e-03, 1.200000000000e-02
1842, 1.607005064640e-03, -1.822172467139e-03, 1.200000000000e-02
1843, 2.410507596960e-03, -1.753901900050e-03, 1.200000000000e-02
1844, 3.214010129279e-03, -1.653594569415e-03, 1.200000000000e-02
1845, 4.017512661599e-03, -1.514899955443e-03, 1.200000000000e-02
1846, 4.821015193919e-03, -1.325825214725e-03, 1.200000000000e-02
1847, -4.921254921257e-03, -8.838834764832e-04, 1.200000000000e-02
1848, -4.101045767714e-03, -1.009933303628e-03, 1.200000000000e-02
1849, -3.280836614172e-03, -1.102396379610e-03, 1.200000000000e-02
1850, -2.460627460629e-03, -1.169267933367e-03, 1.200000000000e-02
1851, -1.640418307086e-03, -1.214781644759e-03, 1.200000000000e-02
1852, -8.202091535429e-04, -1.241289092481e-03, 1.200000000000e-02
1853, 0.000000000000e+00, -1.250000000000e-03, 1.200000000000e-02
1854, 8.202091535429e-04, -1.241289092481e-03, 1.200000000000e-02
1855, 1.640418307086e-03, -1.214781644759e-03, 1.200000000000e-02
1856, 2.460627460629e-03, -1.169267933367e-03, 1.200000000000e-02
1857, 3.280836614172e-03, -1.102396379610e-03, 1.200000000000e-02
1858, 4.101045767714e-03, -1.009933303628e-03, 1.200000000000e-02
1859, 4.921254921257e-03, -8.838834764832e-04, 1.200000000000e-02
1860, -4.980430453284e-03, -4.419417382416e-04, 1.200000000000e-02
1861, -4.150358711070e-03, -5.049666518142e-04, 1.200000000000e-02
1862, -3.320286968856e-03, -5.511981898051e-04, 1.200000000000e-02
1863, -2.490215226642e-03, -5.846339666834e-04, 1.200000000000e-02
1864, -1.660143484428e-03, -6.073908223797e-04, 1.200000000000e-02
1865, -8.300717422140e-04, -6.206445462403e-04, 1.200000000000e-02
1866, 0.000000000000e+00, -6.250000000000e-04, 1.200000000000e-02
1867, 8.300717422140e-04, -6.206445462403e-04, 1.200000000000e-02
1868, 1.660143484428e-03, -6.073908223797e-04, 1.200000000000e-02
1869, 2.490215226642e-03, -5.846339666834e-04, 1.200000000000e-02
1870, 3.320286968856e-03, -5.511981898051e-04, 1.200000000000e-02
1871, 4.150358711070e-03, -5.049666518142e-04, 1.200000000000e-02
1872, 4.980430453284e-03, -4.419417382416e-04, 1.200000000000e-02
1873, -5.000000000000e-03, 0.000000000000e+00, 1.200000000000e-02
1874, -4.166666666667e-03, 0.000000000000e+00, 1.200000000000e-02
1875, -3.333333333333e-03, 0.000000000000e+00, 1.200000000000e-02
1876, -2.500000000000e-03, 0.000000000000e+00, 1.200000000000e-02
1877, -1.666666666667e-03, 0.000000000000e+00, 1.200000000000e-02
1878, -8.333333333333e-04, 0.000000000000e+00, 1.200000000000e-02
1879, 0.000000000000e+00, 0.000000000000e+00, 1.200000000000e-02
1880, 8.333333333333e-04, 0.000000000000e+00, 1.200000000000e-02
1881, 1.666666666667e-03, 0.000000000000e+00, 1.200000000000e-02
1882, 2.500000000000e-03, 0.000000000000e+00, 1.200000000000e-02
1883, 3.333333333333e-03, 0.000000000000e+00, 1.200000000000e-02
1884, 4.166666666667e-03, 0.000000000000e+00, 1.200000000000e-02
1885, 5.000000000000e-03, 0.000000000000e+00, 1.200000000000e-02
1886, -4.980430453284e-03, 4.419417382416e-04, 1.200000000000e-02
1887, -4.150358711070e-03, 5.049666518142e-04, 1.200000000000e-02
1888, -3.320286968856e-03, 5.511981898051e-04, 1.200000000000e-02
1889, -2.490215226642e-03, 5.846339666834e-04, 1.200000000000e-02
1890, -1.660143484428e-03, 6.073908223797e-04, 1.200000000000e-02
1891, -8.300717422140e-04, 6.206445462403e-04, 1.200000000000e-02
1892, 0.000000000000e+00, 6.250000000000e-04, 1.200000000000e-02
1893, 8.300717422140e-04, 6.206445462403e-04, 1.200000000000e-02
1894, 1.660143484428e-03, 6.073908223797e-04, 1.200000000000e-02
1895, 2.490215226642e-03, 5.846339666834e-04, 1.200000000000e-02
1896, 3.320286968856e-03, 5.511981898051e-04, 1.200000000000e-02
1897, 4.150358711070e-03, 5.049666518142e-04, 1.200000000000e-02
1898, 4.980430453284e-03, 4.419417382416e-04, 1.200000000000e-02
1899, -4.921254921257e-03, 8.838834764832e-04, 1.200000000000e-02
1900, -4.101045767714e-03, 1.009933303628e-03, 1.200000000000e-02
1901, -3.280836614172e-03, 1.102396379610e-03, 1.200000000000e-02
1902, -2.460627460629e-03, 1.169267933367e-03, 1.200000000000e-02
1903, -1.640418307086e-03, 1.214781644759e-03, 1.200000000000e-02
1904, -8.202091535429e-04, 1.241289092481e-03, 1.200000000000e-02
1905, 0.000000000000e+00, 1.250000000000e-03, 1.200000000000e-02
1906, 8.202091535429e-04, 1.241289092481e-03, 1.200000000000e-02
1907, 1.640418307086e-03, 1.214781644759e-03, 1.200000000000e-02
1908, 2.460627460629e-03, 1.169267933367e-03, 1.200000000000e-02
1909, 3.280836614172e-03, 1.102396379610e-03, 1.200000000000e-02
1910, 4.101045767714e-03, 1.009933303628e-03, 1.200000000000e-02
1911, 4.921254921257e-03, 8.838834764832e-04, 1.200000000000e-02
1912, -4.821015193919e-03, 1.325825214725e-03, 1.200000000000e-02
1913, -4.017512661599e-03, 1.514899955443e-03, 1.200000000000e-02
1914, -3.214010129279e-03, 1.653594569415e-03, 1.200000000000e-02
1915, -2.410507596960e-03, 1.753901900050e-03, 1.200000000000e-02
1916, -1.607005064640e-03, 1.822172467139e-03, 1.200000000000e-02
1917, -8.035025323199e-04, 1.861933638721e-03, 1.200000000000e-02
1918, 0.000000000000e+00, 1.875000000000e-03, 1.200000000000e-02
1919, 8.035025323199e-04, 1.861933638721e-03, 1.200000000000e-02
1920, 1.607005064640e-03, 1.822172467139e-03, 1.200000000000e-02
1921, 2.410507596960e-03, 1.753901900050e-03, 1.200000000000e-02
1922, 3.214010129279e-03, 1.653594569415e-03, 1.200000000000e-02
1923, 4.017512661599e-03, 1.514899955443e-03, 1.200000000000e-02
1924, 4.821015193919e-03, 1.325825214725e-03, 1.200000000000e-02
1925, -4.677071733467e-03, 1.767766952966e-03, 1.200000000000e-02
1926, -3.897559777890e-03, 2.019866607257e-03, 1.200000000000e-02
1927, -3.118047822312e-03, 2.204792759220e-03, 1.200000000000e-02
1928, -2.338535866734e-03, 2.338535866734e-03, 1.200000000000e-02
1929, -1.559023911156e-03, 2.429563289519e-03, 1.200000000000e-02
1930, -7.795119555779e-04, 2.482578184961e-03, 1.200000000000e-02
1931, 0.000000000000e+00, 2.500000000000e-03, 1.200000000000e-02
1932, 7.795119555779e-04, 2.482578184961e-03, 1.200000000000e-02
1933, 1.559023911156e-03, 2.429563289519e-03, 1.200000000000e-02
1934, 2.338535866734e-03, 2.338535866734e-03, 1.200000000000e-02
1935, 3.118047822312e-03, 2.204792759220e-03, 1.200000000000e-02
1936, 3.897559777890e-03, 2.019866607257e-03, 1.200000000000e-02
1937, 4.677071733467e-03, 1.767766952966e-03, 1.200000000000e-02
1938, -4.485218779502e-03, 2.209708691208e-03, 1.200000000000e-02
1939, -3.737682316252e-03, 2.524833259071e-03, 1.200000000000e-02
1940, -2.990145853002e-03, 2.755990949026e-03, 1.200000000000e-02
1941, -2.242609389751e-03, 2.923169833417e-03, 1.200000000000e-02
1942, -1.495072926501e-03, 3.036954111899e-03, 1.200000000000e-02
1943, -7.475364632504e-04, 3.103222731201e-03, 1.200000000000e-02
1944, 0.000000000000e+00, 3.125000000000e-03, 1.200000000000e-02
1945, 7.475364632504e-04, 3.103222731201e-03, 1.200000000000e-02
1946, 1.495072926501e-03, 3.036954111899e-03, 1.200000000000e-02
1947, 2.242609389751e-03, 2.923169833417e-03, 1.200000000000e-02
1948, 2.990145853002e-03, 2.755990949026e-03, 1.200000000000e-02
1949, 3.737682316252e-03, 2.524833259071e-03, 1.200000000000e-02
1950, 4.485218779502e-03, 2.209708691208e-03, 1.200000000000e-02
1951, -4.238956239453e-03, 2.651650429450e-03, 1.200000000000e-02
1952, -3.532463532878e-03, 3.029799910885e-03, 1.200000000000e-02
1953, -2.825970826302e-03, 3.307189138831e-03, 1.200000000000e-02
1954, -2.119478119727e-03, 3.507803800101e-03, 1.200000000000e-02
1955, -1.412985413151e-03, 3.644344934278e-03, 1.200000000000e-02
1956, -7.064927065755e-04, 3.723867277442e-03, 1.200000000000e-02
1957, 0.000000000000e+00, 3.750000000000e-03, 1.200000000000e-02
1958, 7.064927065755e-04, 3.723867277442e-03, 1.200000000000e-02
1959, 1.412985413151e-03, 3.644344934278e-03, 1.200000000000e-02
1960, 2.119478119727e-03, 3.507803800101e-03, 1.200000000000e-02
1961, 2.825970826302e-03, 3.307189138831e-03, 1.200000000000e-02
1962, 3.532463532878e-03, 3.029799910885e-03, 1.200000000000e-02
1963, 4.238956239453e-03, 2.651650429450e-03, 1.200000000000e-02
1964, -3.928064090618e-03, 3.093592167691e-03, 1.200000000000e-02
1965, -3.273386742181e-03, 3.534766562699e-03, 1.200000000000e-02
1966, -2.618709393745e-03, 3.858387328636e-03, 1.200000000000e-02
1967, -1.964032045309e-03, 4.092437766784e-03, 1.200000000000e-02
1968, -1.309354696873e-03, 4.251735756658e-03, 1.200000000000e-02
1969, -6.546773484363e-04, 4.344511823682e-03, 1.200000000000e-02
1970, 0.000000000000e+00, 4.375000000000e-03, 1.200000000000e-02
1971, 6.546773484363e-04, 4.344511823682e-03, 1.200000000000e-02
1972, 1.309354696873e-03, 4.251735756658e-03, 1.200000000000e-02
1973, 1.964032045309e-03, 4.092437766784e-03, 1.200000000000e-02
1974, 2.618709393745e-03, 3.858387328636e-03, 1.200000000000e-02
1975, 3.273386742181e-03, 3.534766562699e-03, 1.200000000000e-02
1976, 3.928064090618e-03, 3.093592167691e-03, 1.200000000000e-02
1977, -3.535533905933e-03, 3.535533905933e-03, 1.200000000000e-02
1978, -2.946278254944e-03, 4.039733214514e-03, 1.200000000000e-02
1979, -2.357022603955e-03, 4.409585518441e-03, 1.200000000000e-02
1980, -1.767766952966e-03, 4.677071733467e-03, 1.200000000000e-02
1981, -1.178511301978e-03, 4.859126579038e-03, 1.200000000000e-02
1982, -5.892556509888e-04, 4.965156369922e-03, 1.200000000000e-02
1983, 0.000000000000e+00, 5.000000000000e-03, 1.200000000000e-02
1984, 5.892556509888e-04, 4.965156369922e-03, 1.200000000000e-02
1985, 1.178511301978e-03, 4.859126579038e-03, 1.200000000000e-02
1986, 1.767766952966e-03, 4.677071733467e-03, 1.200000000000e-02
1987, 2.357022603955e-03, 4.409585518441e-03, 1.200000000000e-02
1988, 2.946278254944e-03, 4.039733214514e-03, 1.200000000000e-02
1989, 3.535533905933e-03, 3.535533905933e-03, 1.200000000000e-02
1990, -3.535533905933e-03, -3.535533905933e-03, 1.350000000000e-02
1991, -2.946278254944e-03, -4.039733214514e-03, 1.350000000000e-02
1992, -2.357022603955e-03, -4.409585518441e-03, 1.350000000000e-02
1993, -1.767766952966e-03, -4.677071733467e-03, 1.350000000000e-02
1994, -1.178511301978e-03, -4.859126579038e-03, 1.350000000000e-02
1995, -5.892556509888e-04, -4.965156369922e-03, 1.350000000000e-02
1996, 0.000000000000e+00, -5.000000000000e-03, 1.350000000000e-02
1997, 5.892556509888e-04, -4.965156369922e-03, 1.350000000000e-02
1998, 1.178511301978e-03, -4.859126579038e-03, 1.350000000000e-02
1999, 1.767766952966e-03, -4.677071733467e-03, 1.350000000000e-02
2000, 2.357022603955e-03, -4.409585518441e-03, 1.350000000000e-02
2001, 2.946278254944e-03, -4.039733214514e-03, 1.350000000000e-02
2002, 3.535533905933e-03, -3.535533905933e-03, 1.350000000000e-02
2003, -3.928064090618e-03, -3.093592167691e-03, 1.350000000000e-02
2004, -3.273386742181e-03, -3.534766562699e-03, 1.350000000000e-02
2005, -2.618709393745e-03, -3.858387328636e-03, 1.350000000000e-02
2006, -1.964032045309e-03, -4.092437766784e-03, 1.350000000000e-02
2007, -1.309354696873e-03, -4.251735756658e-03, 1.350000000000e-02
2008, -6.546773484363e-04, -4.344511823682e-03, 1.350000000000e-02
2009, 0.000000000000e+00, -4.375000000000e-03, 1.350000000000e-02
2010, 6.546773484363e-04, -4.344511823682e-03, 1.350000000000e-02
2011, 1.309354696873e-03, -4.251735756658e-03, 1.350000000000e-02
2012, 1.964032045309e-03, -4.092437766784e-03, 1.350000000000e-02
2013, 2.618709393745e-03, -3.858387328636e-03, 1.350000000000e-02
2014, 3.273386742181e-03, -3.534766562699e-03, 1.350000000000e-02
2015, 3.928064090618e-03, -3.093592167691e-03, 1.350000000000e-02
2016, -4.238956239453e-03, -2.651650429450e-03, 1.350000000000e-02
2017, -3.532463532878e-03, -3.029799910885e-03, 1.350000000000e-02
2018, -2.825970826302e-03, -3.307189138831e-03, 1.350000000000e-02
2019, -2.119478119727e-03, -3.507803800101e-03, 1.350000000000e-02
2020, -1.412985413151e-03, -3.644344934278e-03, 1.350000000000e-02
2021, -7.064927065755e-04, -3.723867277442e-03, 1.350000000000e-02
2022, 0.000000000000e+00, -3.750000000000e-03, 1.350000000000e-02
2023, 7.064927065755e-04, -3.723867277442e-03, 1.350000000000e-02
2024, 1.412985413151e-03, -3.644344934278e-03, 1.350000000000e-02
2025, 2.119478119727e-03, -3.507803800101e-03, 1.350000000000e-02
2026, 2.825970826302e-03, -3.307189138831e-03, 1.350000000000e-02
2027, 3.532463532878e-03, -3.029799910885e-03, 1.350000000000e-02
2028, 4.238956239453e-03, -2.651650429450e-03, 1.350000000000e-02
2029, -4.485218779502e-03, -2.209708691208e-03, 1.350000000000e-02
2030, -3.737682316252e-03, -2.524833259071e-03, 1.350000000000e-02
2031, -2.990145853002e-03, -2.755990949026e-03, 1.350000000000e-02
2032, -2.242609389751e-03, -2.923169833417e-03, 1.350000000000e-02
2033, -1.495072926501e-03, -3.036954111899e-03, 1.350000000000e-02
2034, -7.475364632504e-04, -3.103222731201e-03, 1.350000000000e-02
2035, 0.000000000000e+00, -3.125000000000e-03, 1.350000000000e-02
2036, 7.475364632504e-04, -3.103222731201e-03, 1.350000000000e-02
2037, 1.495072926501e-03, -3.036954111899e-03, 1.350000000000e-02
2038, 2.242609389751e-03, -2.923169833417e-03, 1.350000000000e-02
2039, 2.990145853002e-03, -2.755990949026e-03, 1.350000000000e-02
2040, 3.737682316252e-03, -2.524833259071e-03, 1.350000000000e-02
2041, 4.485218779502e-03, -2.209708691208e-03, 1.350000000000e-02
2042, -4.677071733467e-03, -1.767766952966e-03, 1.350000000000e-02
2043, -3.897559777890e-03, -2.019866607257e-03, 1.350000000000e-02
2044, -3.118047822312e-03, -2.204792759220e-03, 1.350000000000e-02
2045, -2.338535866734e-03, -2.338535866734e-03, 1.350000000000e-02
2046, -1.559023911156e-03, -2.429563289519e-03, 1.350000000000e-02
2047, -7.795119555779e-04, -2.482578184961e-03, 1.350000000000e-02
2048, 0.000000000000e+00, -2.500000000000e-03, 1.350000000000e-02
2049, 7.795119555779e-04, -2.482578184961e-03, 1.350000000000e-02
2050, 1.559023911156e-03, -2.429563289519e-03, 1.350000000000e-02
2051, 2.338535866734e-03, -2.338535866734e-03, 1.350000000000e-02
2052, 3.118047822312e-03, -2.204792759220e-03, 1.350000000000e-02
2053, 3.897559777890e-03, -2.019866607257e-03, 1.350000000000e-02
2054, 4.677071733467e-03, -1.767766952966e-03, 1.350000000000e-02
2055, -4.821015193919e-03, -1.325825214725e-03, 1.350000000000e-02
2056, -4.017512661599e-03, -1.514899955443e-03, 1.350000000000e-02
2057, -3.214010129279e-03, -1.653594569415e-03, 1.350000000000e-02
2058, -2.410507596960e-03, -1.753901900050e-03, 1.350000000000e-02
2059, -1.607005064640e-03, -1.822172467139e-03, 1.350000000000e-02
2060, -8.035025323199e-04, -1.861933638721e-03, 1.350000000000e-02
2061, 0.000000000000e+00, -1.875000000000e-03, 1.350000000000e-02
2062, 8.035025323199e-04, -1.861933638721e-03, 1.350000000000e-02
2063, 1.607005064640e-03, -1.822172467139e-03, 1.350000000000e-02
2064, 2.410507596960e-03, -1.753901900050e-03, 1.350000000000e-02
2065, 3.214010129279e-03, -1.653594569415e-03, 1.350000000000e-02
2066, 4.017512661599e-03, -1.514899955443e-03, 1.350000000000e-02
2067, 4.821015193919e-03, -1.325825214725e-03, 1.350000000000e-02
2068, -4.921254921257e-03, -8.838834764832e-04, 1.350000000000e-02
2069, -4.101045767714e-03, -1.009933303628e-03, 1.350000000000e-02
2070, -3.280836614172e-03, -1.102396379610e-03, 1.350000000000e-02
2071, -2.460627460629e-03, -1.169267933367e-03, 1.350000000000e-02
2072, -1.640418307086e-03, -1.214781644759e-03, 1.350000000000e-02
2073, -8.202091535429e-04, -1.241289092481e-03, 1.350000000000e-02
2074, 0.000000000000e+00, -1.250000000000e-03, 1.350000000000e-02
2075, 8.202091535429e-04, -1.241289092481e-03, 1.350000000000e-02
2076, 1.640418307086e-03, -1.214781644759e-03, 1.350000000000e-02
2077, 2.460627460629e-03, -1.169267933367e-03, 1.350000000000e-02
2078, 3.280836614172e-03, -1.102396379610e-03, 1.350000000000e-02
2079, 4.101045767714e-03, -1.009933303628e-03, 1.350000000000e-02
2080, 4.921254921257e-03, -8.838834764832e-04, 1.350000000000e-02
2081, -4.980430453284e-03, -4.419417382416e-04, 1.350000000000e-02
2082, -4.150358711070e-03, -5.049666518142e-04, 1.350000000000e-02
2083, -3.320286968856e-03, -5.511981898051e-04, 1.350000000000e-02
2084, -2.490215226642e-03, -5.846339666834e-04, 1.350000000000e-02
2085, -1.660143484428e-03, -6.073908223797e-04, 1.350000000000e-02
2086, -8.300717422140e-04, -6.206445462403e-04, 1.350000000000e-02
2087, 0.000000000000e+00, -6.250000000000e-04, 1.350000000000e-02
2088, 8.300717422140e-04, -6.206445462403e-04, 1.350000000000e-02
2089, 1.660143484428e-03, -6.073908223797e-04, 1.350000000000e-02
2090, 2.490215226642e-03, -5.846339666834e-04, 1.350000000000e-02
2091, 3.320286968856e-03, -5.511981898051e-04, 1.350000000000e-02
2092, 4.150358711070e-03, -5.049666518142e-04, 1.350000000000e-02
2093, 4.980430453284e-03, -4.419417382416e-04, 1.350000000000e-02
2094, -5.000000000000e-03, 0.000000000000e+00, 1.350000000000e-02
2095, -4.166666666667e-03, 0.000000000000e+00, 1.350000000000e-02
2096, -3.333333333333e-03, 0.000000000000e+00, 1.350000000000e-02
2097, -2.500000000000e-03, 0.000000000000e+00, 1.350000000000e-02
2098, -1.666666666667e-03, 0.000000000000e+00, 1.350000000000e-02
2099, -8.333333333333e-04, 0.000000000000e+00, 1.350000000000e-02
2100, 0.000000000000e+00, 0.000000000000e+00, 1.350000000000e-02
2101, 8.333333333333e-04, 0.000000000000e+00, 1.350000000000e-02
2102, 1.666666666667e-03, 0.000000000000e+00, 1.350000000000e-02
2103, 2.500000000000e-03, 0.000000000000e+00, 1.350000000000e-02
2104, 3.333333333333e-03, 0.000000000000e+00, 1.350000000000e-02
2105, 4.166666666667e-03, 0.000000000000e+00, 1.350000000000e-02
2106, 5.000000000000e-03, 0.000000000000e+00, 1.350000000000e-02
2107, -4.980430453284e-03, 4.419417382416e-04, 1.350000000000e-02
2108, -4.150358711070e-03, 5.049666518142e-04, 1.350000000000e-02
2109, -3.320286968856e-03, 5.511981898051e-04, 1.350000000000e-02
2110, -2.490215226642e-03, 5.846339666834e-04, 1.350000000000e-02
2111, -1.660143484428e-03, 6.073908223797e-04, 1.350000000000e-02
2112, -8.300717422140e-04, 6.206445462403e-04, 1.350000000000e-02
2113, 0.000000000000e+00, 6.250000000000e-04, 1.350000000000e-02
2114, 8.300717422140e-04, 6.206445462403e-04, 1.350000000000e-02
2115, 1.660143484428e-03, 6.073908223797e-04, 1.350000000000e-02
2116, 2.490215226642e-03, 5.846339666834e-04, 1.350000000000e-02
2117, 3.320286968856e-03, 5.511981898051e-04, 1.350000000000e-02
2118, 4.150358711070e-03, 5.049666518142e-04, 1.350000000000e-02
2119, 4.980430453284e-03, 4.419417382416e-04, 1.350000000000e-02
2120, -4.921254921257e-03, 8.838834764832e-04, 1.350000000000e-02
2121, -4.101045767714e-03, 1.009933303628e-03, 1.350000000000e-02
2122, -3.280836614172e-03, 1.102396379610e-03, 1.350000000000e-02
2123, -2.460627460629e-03, 1.169267933367e-03, 1.350000000000e-02
2124, -1.640418307086e-03, 1.214781644759e-03, 1.350000000000e-02
2125, -8.202091535429e-04, 1.241289092481e-03, 1.350000000000e-02
2126, 0.000000000000e+00, 1.250000000000e-03, 1.350000000000e-02
2127, 8.202091535429e-04, 1.241289092481e-03, 1.350000000000e-02
2128, 1.640418307086e-03, 1.214781644759e-03, 1.350000000000e-02
2129, 2.460627460629e-03, 1.169267933367e-03, 1.350000000000e-02
2130, 3.280836614172e-03, 1.102396379610e-03, 1.350000000000e-02
2131, 4.101045767714e-03, 1.009933303628e-03, 1.350000000000e-02
2132, 4.921254921257e-03, 8.838834764832e-04, 1.350000000000e-02
2133, -4.821015193919e-03, 1.325825214725e-03, 1.350000000000e-02
2134, -4.017512661599e-03, 1.514899955443e-03, 1.350000000000e-02
2135, -3.214010129279e-03, 1.653594569415e-03, 1.350000000000e-02
2136, -2.410507596960e-03, 1.753901900050e-03, 1.350000000000e-02
2137, -1.607005064640e-03, 1.822172467139e-03, 1.350000000000e-02
2138, -8.035025323199e-04, 1.861933638721e-03, 1.350000000000e-02
2139, 0.000000000000e+00, 1.875000000000e-03, 1.350000000000e-02
2140, 8.035025323199e-04, 1.861933638721e-03, 1.350000000000e-02
2141, 1.607005064640e-03, 1.822172467139e-03, 1.350000000000e-02
2142, 2.410507596960e-03, 1.753901900050e-03, 1.350000000000e-02
2143, 3.214010129279e-03, 1.653594569415e-03, 1.350000000000e-02
2144, 4.017512661599e-03, 1.514899955443e-03, 1.350000000000e-02
2145, 4.821015193919e-03, 1.325825214725e-03, 1.350000000000e-02
2146, -4.677071733467e-03, 1.767766952966e-03, 1.350000000000e-02
2147, -3.897559777890e-03, 2.019866607257e-03, 1.350000000000e-02
2148, -3.118047822312e-03, 2.204792759220e-03, 1.350000000000e-02
2149, -2.338535866734e-03, 2.338535866734e-03, 1.350000000000e-02
2150, -1.559023911156e-03, 2.429563289519e-03, 1.350000000000e-02
2151, -7.795119555779e-04, 2.482578184961e-03, 1.350000000000e-02
2152, 0.000000000000e+00, 2.500000000000e-03, 1.350000000000e-02
2153, 7.795119555779e-04, 2.482578184961e-03, 1.350000000000e-02
2154, 1.559023911156e-03, 2.429563289519e-03, 1.350000000000e-02
2155, 2.338535866734e-03, 2.338535866734e-03, 1.350000000000e-02
2156, 3.118047822312e-03, 2.204792759220e-03, 1.350000000000e-02
2157, 3.897559777890e-03, 2.019866607257e-03, 1.350000000000e-02
2158, 4.677071733467e-03, 1.767766952966e-03, 1.350000000000e-02
2159, -4.485218779502e-03, 2.209708691208e-03, 1.350000000000e-02
2160, -3.737682316252e-03, 2.524833259071e-03, 1.350000000000e-02
2161, -2.990145853002e-03, 2.755990949026e-03, 1.350000000000e-02
2162, -2.242609389751e-03, 2.923169833417e-03, 1.350000000000e-02
2163, -1.495072926501e-03, 3.036954111899e-03, 1.350000000000e-02
2164, -7.475364632504e-04, 3.103222731201e-03, 1.350000000000e-02
2165, 0.000000000000e+00, 3.125000000000e-03, 1.350000000000e-02
2166, 7.475364632504e-04, 3.103222731201e-03, 1.350000000000e-02
2167, 1.495072926501e-03, 3.036954111899e-03, 1.350000000000e-02
2168, 2.242609389751e-03, 2.923169833417e-03, 1.350000000000e-02
2169, 2.990145853002e-03, 2.755990949026e-03, 1.350000000000e-02
2170, 3.737682316252e-03, 2.524833259071e-03, 1.350000000000e-02
2171, 4.485218779502e-03, 2.209708691208e-03, 1.350000000000e-02
2172, -4.238956239453e-03, 2.651650429450e-03, 1.350000000000e-02
2173, -3.532463532878e-03, 3.029799910885e-03, 1.350000000000e-02
2174, -2.825970826302e-03, 3.307189138831e-03, 1.350000000000e-02
2175, -2.119478119727e-03, 3.507803800101e-03, 1.350000000000e-02
2176, -1.412985413151e-03, 3.644344934278e-03, 1.350000000000e-02
2177, -7.064927065755e-04, 3.723867277442e-03, 1.350000000000e-02
2178, 0.000000000000e+00, 3.750000000000e-03, 1.350000000000e-02
2179, 7.064927065755e-04, 3.723867277442e-03, 1.350000000000e-02
2180, 1.412985413151e-03, 3.644344934278e-03, 1.350000000000e-02
2181, 2.119478119727e-03, 3.507803800101e-03, 1.350000000000e-02
2182, 2.825970826302e-03, 3.307189138831e-03, 1.350000000000e-02
2183, 3.532463532878e-03, 3.029799910885e-03, 1.350000000000e-02
2184, 4.238956239453e-03, 2.651650429450e-03, 1.350000000000e-02
2185, -3.928064090618e-03, 3.093592167691e-03, 1.350000000000e-02
2186, -3.273386742181e-03, 3.534766562699e-03, 1.350000000000e-02
2187, -2.618709393745e-03, 3.858387328636e-03, 1.350000000000e-02
2188, -1.964032045309e-03, 4.092437766784e-03, 1.350000000000e-02
2189, -1.309354696873e-03, 4.251735756658e-03, 1.350000000000e-02
2190, -6.546773484363e-04, 4.344511823682e-03, 1.350000000000e-02
2191, 0.000000000000e+00, 4.375000000000e-03, 1.350000000000e-02
2192, 6.546773484363e-04, 4.344511823682e-03, 1.350000000000e-02
2193, 1.309354696873e-03, 4.251735756658e-03, 1.350000000000e-02
2194, 1.964032045309e-03, 4.092437766784e-03, 1.350000000000e-02
2195, 2.618709393745e-03, 3.858387328636e-03, 1.350000000000e-02
2196, 3.273386742181e-03, 3.534766562699e-03, 1.350000000000e-02
2197, 3.928064090618e-03, 3.093592167691e-03, 1.350000000000e-02
2198, -3.535533905933e-03, 3.535533905933e-03, 1.350000000000e-02
2199, -2.946278254944e-03, 4.039733214514e-03, 1.350000000000e-02
2200, -2.357022603955e-03, 4.409585518441e-03, 1.350000000000e-02
2201, -1.767766952966e-03, 4.677071733467e-03, 1.350000000000e-02
2202, -1.178511301978e-03, 4.859126579038e-03, 1.350000000000e-02
2203, -5.892556509888e-04, 4.965156369922e-03, 1.350000000000e-02
2204, 0.000000000000e+00, 5.000000000000e-03, 1.350000000000e-02
2205, 5.892556509888e-04, 4.965156369922e-03, 1.350000000000e-02
2206, 1.178511301978e-03, 4.859126579038e-03, 1.350000000000e-02
2207, 1.767766952966e-03, 4.677071733467e-03, 1.350000000000e-02
2208, 2.357022603955e-03, 4.409585518441e-03, 1.350000000000e-02
2209, 2.946278254944e-03, 4.039733214514e-03, 1.350000000000e-02
2210, 3.535533905933e-03, 3.535533905933e-03, 1.350000000000e-02
2211, -3.535533905933e-03, -3.535533905933e-03, 1.500000000000e-02
2212, -2.946278254944e-03, -4.039733214514e-03, 1.500000000000e-02
2213, -2.357022603955e-03, -4.409585518441e-03, 1.500000000000e-02
2214, -1.767766952966e-03, -4.677071733467e-03, 1.500000000000e-02
2215, -1.178511301978e-03, -4.859126579038e-03, 1.500000000000e-02
2216, -5.892556509888e-04, -4.965156369922e-03, 1.500000000000e-02
2217, 0.000000000000e+00, -5.000000000000e-03, 1.500000000000e-02
2218, 5.892556509888e-04, -4.965156369922e-03, 1.500000000000e-02
2219, 1.178511301978e-03, -4.859126579038e-03, 1.500000000000e-02
2220, 1.767766952966e-03, -4.677071733467e-03, 1.500000000000e-02
2221, 2.357022603955e-03, -4.409585518441e-03, 1.500000000000e-02
2222, 2.946278254944e-03, -4.039733214514e-03, 1.500000000000e-02
2223, 3.535533905933e-03, -3.535533905933e-03, 1.500000000000e-02
2224, -3.928064090618e-03, -3.093592167691e-03, 1.500000000000e-02
2225, -3.273386742181e-03, -3.534766562699e-03, 1.500000000000e-02
2226, -2.618709393745e-03, -3.858387328636e-03, 1.500000000000e-02
2227, -1.964032045309e-03, -4.092437766784e-03, 1.500000000000e-02
2228, -1.309354696873e-03, -4.251735756658e-03, 1.500000000000e-02
2229, -6.546773484363e-04, -4.344511823682e-03, 1.500000000000e-02
2230, 0.000000000000e+00, -4.375000000000e-03, 1.500000000000e-02
2231, 6.546773484363e-04, -4.344511823682e-03, 1.500000000000e-02
2232, 1.309354696873e-03, -4.251735756658e-03, 1.500000000000e-02
2233, 1.964032045309e-03, -4.092437766784e-03, 1.500000000000e-02
2234, 2.618709393745e-03, -3.858387328636e-03, 1.500000000000e-02
2235, 3.273386742181e-03, -3.534766562699e-03, 1.500000000000e-02
2236, 3.928064090618e-03, -3.093592167691e-03, 1.500000000000e-02
2237, -4.238956239453e-03, -2.651650429450e-03, 1.500000000000e-02
2238, -3.532463532878e-03, -3.029799910885e-03, 1.500000000000e-02
2239, -2.825970826302e-03, -3.307189138831e-03, 1.500000000000e-02
2240, -2.119478119727e-03, -3.507803800101e-03, 1.500000000000e-02
2241, -1.412985413151e-03, -3.644344934278e-03, 1.500000000000e-02
2242, -7.064927065755e-04, -3.723867277442e-03, 1.500000000000e-02
2243, 0.000000000000e+00, -3.750000000000e-03, 1.500000000000e-02
2244, 7.064927065755e-04, -3.723867277442e-03, 1.500000000000e-02
2245, 1.412985413151e-03, -3.644344934278e-03, 1.500000000000e-02
2246, 2.119478119727e-03, -3.507803800101e-03, 1.500000000000e-02
2247, 2.825970826302e-03, -3.307189138831e-03, 1.500000000000e-02
2248, 3.532463532878e-03, -3.029799910885e-03, 1.500000000000e-02
2249, 4.238956239453e-03, -2.651650429450e-03, 1.500000000000e-02
2250, -4.485218779502e-03, -2.209708691208e-03, 1.500000000000e-02
2251, -3.737682316252e-03, -2.524833259071e-03, 1.500000000000e-02
2252, -2.990145853002e-03, -2.755990949026e-03, 1.500000000000e-02
2253, -2.242609389751e-03, -2.923169833417e-03, 1.500000000000e-02
2254, -1.495072926501e-03, -3.036954111899e-03, 1.500000000000e-02
2255, -7.475364632504e-04, -3.103222731201e-03, 1.500000000000e-02
2256, 0.000000000000e+00, -3.125000000000e-03, 1.500000000000e-02
2257, 7.475364632504e-04, -3.103222731201e-03, 1.500000000000e-02
2258, 1.495072926501e-03, -3.036954111899e-03, 1.500000000000e-02
2259, 2.242609389751e-03, -2.923169833417e-03, 1.500000000000e-02
2260, 2.990145853002e-03, -2.755990949026e-03, 1.500000000000e-02
2261, 3.737682316252e-03, -2.524833259071e-03, 1.500000000000e-02
2262, 4.485218779502e-03, -2.209708691208e-03, 1.500000000000e-02
2263, -4.677071733467e-03, -1.767766952966e-03, 1.500000000000e-02
2264, -3.897559777890e-03, -2.019866607257e-03, 1.500000000000e-02
2265, -3.118047822312e-03, -2.204792759220e-03, 1.500000000000e-02
2266, -2.338535866734e-03, -2.338535866734e-03, 1.500000000000e-02
2267, -1.559023911156e-03, -2.429563289519e-03, 1.500000000000e-02
2268, -7.795119555779e-04, -2.482578184961e-03, 1.500000000000e-02
2269, 0.000000000000e+00, -2.500000000000e-03, 1.500000000000e-02
2270, 7.795119555779e-04, -2.482578184961e-03, 1.500000000000e-02
2271, 1.559023911156e-03, -2.429563289519e-03, 1.500000000000e-02
2272, 2.338535866734e-03, -2.338535866734e-03, 1.500000000000e-02
2273, 3.118047822312e-03, -2.204792759220e-03, 1.500000000000e-02
2274, 3.897559777890e-03, -2.019866607257e-03, 1.500000000000e-02
2275, 4.677071733467e-03, -1.767766952966e-03, 1.500000000000e-02
2276, -4.821015193919e-03, -1.325825214725e-03, 1.500000000000e-02
2277, -4.017512661599e-03, -1.514899955443e-03, 1.500000000000e-02
2278, -3.214010129279e-03, -1.653594569415e-03, 1.500000000000e-02
2279, -2.410507596960e-03, -1.753901900050e-03, 1.500000000000e-02
2280, -1.607005064640e-03, -1.822172467139e-03, 1.500000000000e-02
2281, -8.035025323199e-04, -1.861933638721e-03, 1.500000000000e-02
2282, 0.000000000000e+00, -1.875000000000e-03, 1.500000000000e-02
2283, 8.035025323199e-04, -1.861933638721e-03, 1.500000000000e-02
2284, 1.607005064640e-03, -1.822172467139e-03, 1.500000000000e-02
2285, 2.410507596960e-03, -1.753901900050e-03, 1.500000000000e-02
2286, 3.214010129279e-03, -1.653594569415e-03, 1.500000000000e-02
2287, 4.017512661599e-03, -1.514899955443e-03, 1.500000000000e-02
2288, 4.821015193919e-03, -1.325825214725e-03, 1.500000000000e-02
2289, -4.921254921257e-03, -8.838834764832e-04, 1.500000000000e-02
2290, -4.101045767714e-03, -1.009933303628e-03, 1.500000000000e-02
2291, -3.280836614172e-03, -1.102396379610e-03, 1.500000000000e-02
2292, -2.460627460629e-03, -1.169267933367e-03, 1.500000000000e-02
2293, -1.640418307086e-03, -1.214781644759e-03, 1.500000000000e-02
2294, -8.202091535429e-04, -1.241289092481e-03, 1.500000000000e-02
2295, 0.000000000000e+00, -1.250000000000e-03, 1.500000000000e-02
2296, 8.202091535429e-04, -1.241289092481e-03, 1.500000000000e-02
2297, 1.640418307086e-03, -1.214781644759e-03, 1.500000000000e-02
2298, 2.460627460629e-03, -1.169267933367e-03, 1.500000000000e-02
2299, 3.280836614172e-03, -1.102396379610e-03, 1.500000000000e-02
2300, 4.101045767714e-03, -1.009933303628e-03, 1.500000000000e-02
2301, 4.921254921257e-03, -8.838834764832e-04, 1.500000000000e-02
2302, -4.980430453284e-03, -4.419417382416e-04, 1.500000000000e-02
2303, -4.150358711070e-03, -5.049666518142e-04, 1.500000000000e-02
2304, -3.320286968856e-03, -5.511981898051e-04, 1.500000000000e-02
2305, -2.490215226642e-03, -5.846339666834e-04, 1.500000000000e-02
2306, -1.660143484428e-03, -6.073908223797e-04, 1.500000000000e-02
2307, -8.300717422140e-04, -6.206445462403e-04, 1.500000000000e-02
2308, 0.000000000000e+00, -6.250000000000e-04, 1.500000000000e-02
2309, 8.300717422140e-04, -6.206445462403e-04, 1.500000000000e-02
2310, 1.660143484428e-03, -6.073908223797e-04, 1.500000000000e-02
2311, 2.490215226642e-03, -5.846339666834e-04, 1.500000000000e-02
2312, 3.320286968856e-03, -5.511981898051e-04, 1.500000000000e-02
2313, 4.150358711070e-03, -5.049666518142e-04, 1.500000000000e-02
2314, 4.980430453284e-03, -4.419417382416e-04, 1.500000000000e-02
2315, -5.000000000000e-03, 0.000000000000e+00, 1.500000000000e-02
2316, -4.166666666667e-03, 0.000000000000e+00, 1.500000000000e-02
2317, -3.333333333333e-03, 0.000000000000e+00, 1.500000000000e-02
2318, -2.500000000000e-03, 0.000000000000e+00, 1.500000000000e-02
2319, -1.666666666667e-03, 0.000000000000e+00, 1.500000000000e-02
2320, -8.333333333333e-04, 0.000000000000e+00, 1.500000000000e-02
2321, 0.000000000000e+00, 0.000000000000e+00, 1.500000000000e-02
2322, 8.333333333333e-04, 0.000000000000e+00, 1.500000000000e-02
2323, 1.666666666667e-03, 0.000000000000e+00, 1.500000000000e-02
2324, 2.500000000000e-03, 0.000000000000e+00, 1.500000000000e-02
2325, 3.333333333333e-03, 0.000000000000e+00, 1.500000000000e-02
2326, 4.166666666667e-03, 0.000000000000e+00, 1.500000000000e-02
2327, 5.000000000000e-03, 0.000000000000e+00, 1.500000000000e-02
2328, -4.980430453284e-03, 4.419417382416e-04, 1.500000000000e-02
2329, -4.150358711070e-03, 5.049666518142e-04, 1.500000000000e-02
2330, -3.320286968856e-03, 5.511981898051e-04, 1.500000000000e-02
2331, -2.490215226642e-03, 5.846339666834e-04, 1.500000000000e-02
2332, -1.660143484428e-03, 6.073908223797e-04, 1.500000000000e-02
2333, -8.300717422140e-04, 6.206445462403e-04, 1.500000000000e-02
2334, 0.000000000000e+00, 6.250000000000e-04, 1.500000000000e-02
2335, 8.300717422140e-04, 6.206445462403e-04, 1.500000000000e-02
2336, 1.660143484428e-03, 6.073908223797e-04, 1.500000000000e-02
2337, 2.490215226642e-03, 5.846339666834e-04, 1.500000000000e-02
2338, 3.320286968856e-03, 5.511981898051e-04, 1.500000000000e-02
2339, 4.150358711070e-03, 5.049666518142e-04, 1.500000000000e-02
2340, 4.980430453284e-03, 4.419417382416e-04, 1.500000000000e-02
2341, -4.921254921257e-03, 8.838834764832e-04, 1.500000000000e-02
2342, -4.101045767714e-03, 1.009933303628e-03, 1.500000000000e-02
2343, -3.280836614172e-03, 1.102396379610e-03, 1.500000000000e-02
2344, -2.460627460629e-03, 1.169267933367e-03, 1.500000000000e-02
2345, -1.640418307086e-03, 1.214781644759e-03, 1.500000000000e-02
2346, -8.202091535429e-04, 1.241289092481e-03, 1.500000000000e-02
2347, 0.000000000000e+00, 1.250000000000e-03, 1.500000000000e-02
2348, 8.202091535429e-04, 1.241289092481e-03, 1.500000000000e-02
2349, 1.640418307086e-03, 1.214781644759e-03, 1.500000000000e-02
2350, 2.460627460629e-03, 1.169267933367e-03, 1.500000000000e-02
2351, 3.280836614172e-03, 1.102396379610e-03, 1.500000000000e-02
2352, 4.101045767714e-03, 1.009933303628e-03, 1.500000000000e-02
2353, 4.921254921257e-03, 8.838834764832e-04, 1.500000000000e-02
2354, -4.821015193919e-03, 1.325825214725e-03, 1.500000000000e-02
2355, -4.017512661599e-03, 1.514899955443e-03, 1.500000000000e-02
2356, -3.214010129279e-03, 1.653594569415e-03, 1.500000000000e-02
2357, -2.410507596960e-03, 1.753901900050e-03, 1.500000000000e-02
2358, -1.607005064640e-03, 1.822172467139e-03, 1.500000000000e-02
2359, -8.035025323199e-04, 1.861933638721e-03, 1.500000000000e-02
2360, 0.000000000000e+00, 1.875000000000e-03, 1.500000000000e-02
2361, 8.035025323199e-04, 1.861933638721e-03, 1.500000000000e-02
2362, 1.607005064640e-03, 1.822172467139e-03, 1.500000000000e-02
2363, 2.410507596960e-03, 1.753901900050e-03, 1.500000000000e-02
2364, 3.214010129279e-03, 1.653594569415e-03, 1.500000000000e-02
2365, 4.017512661599e-03, 1.514899955443e-03, 1.500000000000e-02
2366, 4.821015193919e-03, 1.325825214725e-03, 1.500000000000e-02
2367, -4.677071733467e-03, 1.767766952966e-03, 1.500000000000e-02
2368, -3.897559777890e-03, 2.019866607257e-03, 1.500000000000e-02
2369, -3.118047822312e-03, 2.204792759220e-03, 1.500000000000e-02
2370, -2.338535866734e-03, 2.338535866734e-03, 1.500000000000e-02
2371, -1.559023911156e-03, 2.429563289519e-03, 1.500000000000e-02
2372, -7.795119555779e-04, 2.482578184961e-03, 1.500000000000e-02
2373, 0.000000000000e+00, 2.500000000000e-03, 1.500000000000e-02
2374, 7.795119555779e-04, 2.482578184961e-03, 1.500000000000e-02
2375, 1.559023911156e-03, 2.429563289519e-03, 1.500000000000e-02
2376, 2.338535866734e-03, 2.338535866734e-03, 1.500000000000e-02
2377, 3.118047822312e-03, 2.204792759220e-03, 1.500000000000e-02
2378, 3.897559777890e-03, 2.019866607257e-03, 1.500000000000e-02
2379, 4.677071733467e-03, 1.767766952966e-03, 1.500000000000e-02
2380, -4.485218779502e-03, 2.209708691208e-03, 1.500000000000e-02
2381, -3.737682316252e-03, 2.524833259071e-03, 1.500000000000e-02
2382, -2.990145853002e-03, 2.755990949026e-03, 1.500000000000e-02
2383, -2.242609389751e-03, 2.923169833417e-03, 1.500000000000e-02
2384, -1.495072926501e-03, 3.036954111899e-03, 1.500000000000e-02
2385, -7.475364632504e-04, 3.103222731201e-03, 1.500000000000e-02
2386, 0.000000000000e+00, 3.125000000000e-03, 1.500000000000e-02
2387, 7.475364632504e-04, 3.103222731201e-03, 1.500000000000e-02
2388, 1.495072926501e-03, 3.036954111899e-03, 1.500000000000e-02
2389, 2.242609389751e-03, 2.923169833417e-03, 1.500000000000e-02
2390, 2.990145853002e-03, 2.755990949026e-03, 1.500000000000e-02
2391, 3.737682316252e-03, 2.524833259071e-03, 1.500000000000e-02
2392, 4.485218779502e-03, 2.209708691208e-03, 1.500000000000e-02
2393, -4.238956239453e-03, 2.651650429450e-03, 1.500000000000e-02
2394, -3.532463532878e-03, 3.029799910885e-03, 1.500000000000e-02
2395, -2.825970826302e-03, 3.307189138831e-03, 1.500000000000e-02
2396, -2.119478119727e-03, 3.507803800101e-03, 1.500000000000e-02
2397, -1.412985413151e-03, 3.644344934278e-03, 1.500000000000e-02
2398, -7.064927065755e-04, 3.723867277442e-03, 1.500000000000e-02
2399, 0.000000000000e+00, 3.750000000000e-03, 1.500000000000e-02
2400, 7.064927065755e-04, 3.723867277442e-03, 1.500000000000e-02
2401, 1.412985413151e-03, 3.644344934278e-03, 1.500000000000e-02
2402, 2.119478119727e-03, 3.507803800101e-03, 1.500000000000e-02
2403, 2.825970826302e-03, 3.307189138831e-03, 1.500000000000e-02
2404, 3.532463532878e-03, 3.029799910885e-03, 1.500000000000e-02
2405, 4.238956239453e-03, 2.651650429450e-03, 1.500000000000e-02
2406, -3.928064090618e-03, 3.093592167691e-03, 1.500000000000e-02
2407, -3.273386742181e-03, 3.534766562699e-03, 1.500000000000e-02
2408, -2.618709393745e-03, 3.858387328636e-03, 1.500000000000e-02
2409, -1.964032045309e-03, 4.092437766784e-03, 1.500000000000e-02
2410, -1.309354696873e-03, 4.251735756658e-03, 1.500000000000e-02
2411, -6.546773484363e-04, 4.344511823682e-03, 1.500000000000e-02
2412, 0.000000000000e+00, 4.375000000000e-03, 1.500000000000e-02
2413, 6.546773484363e-04, 4.344511823682e-03, 1.500000000000e-02
2414, 1.309354696873e-03, 4.251735756658e-03, 1.500000000000e-02
2415, 1.964032045309e-03, 4.092437766784e-03, 1.500000000000e-02
2416, 2.618709393745e-03, 3.858387328636e-03, 1.500000000000e-02
2417, 3.273386742181e-03, 3.534766562699e-03, 1.500000000000e-02
2418, 3.928064090618e-03, 3.093592167691e-03, 1.500000000000e-02
2419, -3.535533905933e-03, 3.535533905933e-03, 1.500000000000e-02
2420, -2.946278254944e-03, 4.039733214514e-03, 1.500000000000e-02
2421, -2.357022603955e-03, 4.409585518441e-03, 1.500000000000e-02
2422, -1.767766952966e-03, 4.677071733467e-03, 1.500000000000e-02
2423, -1.178511301978e-03, 4.859126579038e-03, 1.500000000000e-02
2424, -5.892556509888e-04, 4.965156369922e-03, 1.500000000000e-02
2425, 0.000000000000e+00, 5.000000000000e-03, 1.500000000000e-02
2426, 5.892556509888e-04, 4.965156369922e-03, 1.500000000000e-02
2427, 1.178511301978e-03, 4.859126579038e-03, 1.500000000000e-02
2428, 1.767766952966e-03, 4.677071733467e-03, 1.500000000000e-02
2429, 2.357022603955e-03, 4.409585518441e-03, 1.500000000000e-02
2430, 2.946278254944e-03, 4.039733214514e-03, 1.500000000000e-02
2431, 3.535533905933e-03, 3.535533905933e-03, 1.500000000000e-02
2432, -3.535533905933e-03, -3.535533905933e-03, 1.650000000000e-02
2433, -2.946278254944e-03, -4.039733214514e-03, 1.650000000000e-02
2434, -2.357022603955e-03, -4.409585518441e-03, 1.650000000000e-02
2435, -1.767766952966e-03, -4.677071733467e-03, 1.650000000000e-02
2436, -1.178511301978e-03, -4.859126579038e-03, 1.650000000000e-02
2437, -5.892556509888e-04, -4.965156369922e-03, 1.650000000000e-02
2438, 0.000000000000e+00, -5.000000000000e-03, 1.650000000000e-02
2439, 5.892556509888e-04, -4.965156369922e-03, 1.650000000000e-02
2440, 1.178511301978e-03, -4.859126579038e-03, 1.650000000000e-02
2441, 1.767766952966e-03, -4.677071733467e-03, 1.650000000000e-02
2442, 2.357022603955e-03, -4.409585518441e-03, 1.650000000000e-02
2443, 2.946278254944e-03, -4.039733214514e-03, 1.650000000000e-02
2444, 3.535533905933e-03, -3.535533905933e-03, 1.650000000000e-02
2445, -3.928064090618e-03, -3.093592167691e-03, 1.650000000000e-02
2446, -3.273386742181e-03, -3.534766562699e-03, 1.650000000000e-02
2447, -2.618709393745e-03, -3.858387328636e-03, 1.650000000000e-02
2448, -1.964032045309e-03, -4.092437766784e-03, 1.650000000000e-02
2449, -1.309354696873e-03, -4.251735756658e-03, 1.650000000000e-02
2450, -6.546773484363e-04, -4.344511823682e-03, 1.650000000000e-02
2451, 0.000000000000e+00, -4.375000000000e-03, 1.650000000000e-02
2452, 6.546773484363e-04, -4.344511823682e-03, 1.650000000000e-02
2453, 1.309354696873e-03, -4.251735756658e-03, 1.650000000000e-02
2454, 1.964032045309e-03, -4.092437766784e-03, 1.650000000000e-02
2455, 2.618709393745e-03, -3.858387328636e-03, 1.650000000000e-02
2456, 3.273386742181e-03, -3.534766562699e-03, 1.650000000000e-02
2457, 3.928064090618e-03, -3.093592167691e-03, 1.650000000000e-02
2458, -4.238956239453e-03, -2.651650429450e-03, 1.650000000000e-02
2459, -3.532463532878e-03, -3.029799910885e-03, 1.650000000000e-02
2460, -2.825970826302e-03, -3.307189138831e-03, 1.650000000000e-02
2461, -2.119478119727e-03, -3.507803800101e-03, 1.650000000000e-02
2462, -1.412985413151e-03, -3.644344934278e-03, 1.650000000000e-02
2463, -7.064927065755e-04, -3.723867277442e-03, 1.650000000000e-02
2464, 0.000000000000e+00, -3.750000000000e-03, 1.650000000000e-02
2465, 7.064927065755e-04, -3.723867277442e-03, 1.650000000000e-02
2466, 1.412985413151e-03, -3.644344934278e-03, 1.650000000000e-02
2467, 2.119478119727e-03, -3.507803800101e-03, 1.650000000000e-02
2468, 2.825970826302e-03, -3.307189138831e-03, 1.650000000000e-02
2469, 3.532463532878e-03, -3.029799910885e-03, 1.650000000000e-02
2470, 4.238956239453e-03, -2.651650429450e-03, 1.650000000000e-02
2471, -4.485218779502e-03, -2.209708691208e-03, 1.650000000000e-02
2472, -3.737682316252e-03, -2.524833259071e-03, 1.650000000000e-02
2473, -2.990145853002e-03, -2.755990949026e-03, 1.650000000000e-02
2474, -2.242609389751e-03, -2.923169833417e-03, 1.650000000000e-02
2475, -1.495072926501e-03, -3.036954111899e-03, 1.650000000000e-02
2476, -7.475364632504e-04, -3.103222731201e-03, 1.650000000000e-02
2477, 0.000000000000e+00, -3.125000000000e-03, 1.650000000000e-02
2478, 7.475364632504e-04, -3.103222731201e-03, 1.650000000000e-02
2479, 1.495072926501e-03, -3.036954111899e-03, 1.650000000000e-02
2480, 2.242609389751e-03, -2.923169833417e-03, 1.650000000000e-02
2481, 2.990145853002e-03, -2.755990949026e-03, 1.650000000000e-02
2482, 3.737682316252e-03, -2.524833259071e-03, 1.650000000000e-02
2483, 4.485218779502e-03, -2.209708691208e-03, 1.650000000000e-02
2484, -4.677071733467e-03, -1.767766952966e-03, 1.650000000000e-02
2485, -3.897559777890e-03, -2.019866607257e-03, 1.650000000000e-02
2486, -3.118047822312e-03, -2.204792759220e-03, 1.650000000000e-02
2487, -2.338535866734e-03, -2.338535866734e-03, 1.650000000000e-02
2488, -1.559023911156e-03, -2.429563289519e-03, 1.650000000000e-02
2489, -7.795119555779e-04, -2.482578184961e-03, 1.650000000000e-02
2490, 0.000000000000e+00, -2.500000000000e-03, 1.650000000000e-02
2491, 7.795119555779e-04, -2.482578184961e-03, 1.650000000000e-02
2492, 1.559023911156e-03, -2.429563289519e-03, 1.650000000000e-02
2493, 2.338535866734e-03, -2.338535866734e-03, 1.650000000000e-02
2494, 3.118047822312e-03, -2.204792759220e-03, 1.650000000000e-02
2495, 3.897559777890e-03, -2.019866607257e-03, 1.650000000000e-02
2496, 4.677071733467e-03, -1.767766952966e-03, 1.650000000000e-02
2497, -4.821015193919e-03, -1.325825214725e-03, 1.650000000000e-02
2498, -4.017512661599e-03, -1.514899955443e-03, 1.650000000000e-02
2499, -3.214010129279e-03, -1.653594569415e-03, 1.650000000000e-02
2500, -2.410507596960e-03, -1.753901900050e-03, 1.650000000000e-02
2501, -1.607005064640e-03, -1.822172467139e-03, 1.650000000000e-02
2502, -8.035025323199e-04, -1.861933638721e-03, 1.650000000000e-02
2503, 0.000000000000e+00, -1.875000000000e-03, 1.650000000000e-02
2504, 8.035025323199e-04, -1.861933638721e-03, 1.650000000000e-02
2505, 1.607005064640e-03, -1.822172467139e-03, 1.650000000000e-02
2506, 2.410507596960e-03, -1.753901900050e-03, 1.650000000000e-02
2507, 3.214010129279e-03, -1.653594569415e-03, 1.650000000000e-02
2508, 4.017512661599e-03, -1.514899955443e-03, 1.650000000000e-02
2509, 4.821015193919e-03, -1.325825214725e-03, 1.650000000000e-02
2510, -4.921254921257e-03, -8.838834764832e-04, 1.650000000000e-02
2511, -4.101045767714e-03, -1.009933303628e-03, 1.650000000000e-02
2512, -3.280836614172e-03, -1.102396379610e-03, 1.650000000000e-02
2513, -2.460627460629e-03, -1.169267933367e-03, 1.650000000000e-02
2514, -1.640418307086e-03, -1.214781644759e-03, 1.650000000000e-02
2515, -8.202091535429e-04, -1.241289092481e-03, 1.650000000000e-02
2516, 0.000000000000e+00, -1.250000000000e-03, 1.650000000000e-02
2517, 8.202091535429e-04, -1.241289092481e-03, 1.650000000000e-02
2518, 1.640418307086e-03, -1.214781644759e-03, 1.650000000000e-02
2519, 2.460627460629e-03, -1.169267933367e-03, 1.650000000000e-02
2520, 3.280836614172e-03, -1.102396379610e-03, 1.650000000000e-02
2521, 4.101045767714e-03, -1.009933303628e-03, 1.650000000000e-02
2522, 4.921254921257e-03, -8.838834764832e-04, 1.650000000000e-02
2523, -4.980430453284e-03, -4.419417382416e-04, 1.650000000000e-02
2524, -4.150358711070e-03, -5.049666518142e-04, 1.650000000000e-02
2525, -3.320286968856e-03, -5.511981898051e-04, 1.650000000000e-02
2526, -2.490215226642e-03, -5.846339666834e-04, 1.650000000000e-02
2527, -1.660143484428e-03, -6.073908223797e-04, 1.650000000000e-02
2528, -8.300717422140e-04, -6.206445462403e-04, 1.650000000000e-02
2529, 0.000000000000e+00, -6.250000000000e-04, 1.650000000000e-02
2530, 8.300717422140e-04, -6.206445462403e-04, 1.650000000000e-02
2531, 1.660143484428e-03, -6.073908223797e-04, 1.650000000000e-02
2532, 2.490215226642e-03, -5.846339666834e-04, 1.650000000000e-02
2533, 3.320286968856e-03, -5.511981898051e-04, 1.650000000000e-02
2534, 4.150358711070e-03, -5.049666518142e-04, 1.650000000000e-02
2535, 4.980430453284e-03, -4.419417382416e-04, 1.650000000000e-02
2536, -5.000000000000e-03, 0.000000000000e+00, 1.650000000000e-02
2537, -4.166666666667e-03, 0.000000000000e+00, 1.650000000000e-02
2538, -3.333333333333e-03, 0.000000000000e+00, 1.650000000000e-02
2539, -2.500000000000e-03, 0.000000000000e+00, 1.650000000000e-02
2540, -1.666666666667e-03, 0.000000000000e+00, 1.650000000000e-02
2541, -8.333333333333e-04, 0.000000000000e+00, 1.650000000000e-02
2542, 0.000000000000e+00, 0.000000000000e+00, 1.650000000000e-02
2543, 8.333333333333e-04, 0.000000000000e+00, 1.650000000000e-02
2544, 1.666666666667e-03, 0.000000000000e+00, 1.650000000000e-02
2545, 2.500000000000e-03, 0.000000000000e+00, 1.650000000000e-02
2546, 3.333333333333e-03, 0.000000000000e+00, 1.650000000000e-02
2547, 4.166666666667e-03, 0.000000000000e+00, 1.650000000000e-02
2548, 5.000000000000e-03, 0.000000000000e+00, 1.650000000000e-02
2549, -4.980430453284e-03, 4.419417382416e-04, 1.650000000000e-02
2550, -4.150358711070e-03, 5.049666518142e-04, 1.650000000000e-02
2551, -3.320286968856e-03, 5.511981898051e-04, 1.650000000000e-02
2552, -2.490215226642e-03, 5.846339666834e-04, 1.650000000000e-02
2553, -1.660143484428e-03, 6.073908223797e-04, 1.650000000000e-02
2554, -8.300717422140e-04, 6.206445462403e-04, 1.650000000000e-02
2555, 0.000000000000e+00, 6.250000000000e-04, 1.650000000000e-02
2556, 8.300717422140e-04, 6.206445462403e-04, 1.650000000000e-02
2557, 1.660143484428e-03, 6.073908223797e-04, 1.650000000000e-02
2558, 2.490215226642e-03, 5.846339666834e-04, 1.650000000000e-02
2559, 3.320286968856e-03, 5.511981898051e-04, 1.650000000000e-02
2560, 4.150358711070e-03, 5.049666518142e-04, 1.650000000000e-02
2561, 4.980430453284e-03, 4.419417382416e-04, 1.650000000000e-02
2562, -4.921254921257e-03, 8.838834764832e-04, 1.650000000000e-02
2563, -4.101045767714e-03, 1.009933303628e-03, 1.650000000000e-02
2564, -3.280836614172e-03, 1.102396379610e-03, 1.650000000000e-02
2565, -2.460627460629e-03, 1.169267933367e-03, 1.650000000000e-02
2566, -1.640418307086e-03, 1.214781644759e-03, 1.650000000000e-02
2567, -8.202091535429e-04, 1.241289092481e-03, 1.650000000000e-02
2568, 0.000000000000e+00, 1.250000000000e-03, 1.650000000000e-02
2569, 8.202091535429e-04, 1.241289092481e-03, 1.650000000000e-02
2570, 1.640418307086e-03, 1.214781644759e-03, 1.650000000000e-02
2571, 2.460627460629e-03, 1.169267933367e-03, 1.650000000000e-02
2572, 3.280836614172e-03, 1.102396379610e-03, 1.650000000000e-02
2573, 4.101045767714e-03, 1.009933303628e-03, 1.650000000000e-02
2574, 4.921254921257e-03, 8.838834764832e-04, 1.650000000000e-02
2575, -4.821015193919e-03, 1.325825214725e-03, 1.650000000000e-02
2576, -4.017512661599e-03, 1.514899955443e-03, 1.650000000000e-02
2577, -3.214010129279e-03, 1.653594569415e-03, 1.650000000000e-02
2578, -2.410507596960e-03, 1.753901900050e-03, 1.650000000000e-02
2579, -1.607005064640e-03, 1.822172467139e-03, 1.650000000000e-02
2580, -8.035025323199e-04, 1.861933638721e-03, 1.650000000000e-02
2581, 0.000000000000e+00, 1.875000000000e-03, 1.650000000000e-02
2582, 8.035025323199e-04, 1.861933638721e-03, 1.650000000000e-02
2583, 1.607005064640e-03, 1.822172467139e-03, 1.650000000000e-02
2584, 2.410507596960e-03, 1.753901900050e-03, 1.650000000000e-02
2585, 3.214010129279e-03, 1.653594569415e-03, 1.650000000000e-02
2586, 4.017512661599e-03, 1.514899955443e-03, 1.650000000000e-02
2587, 4.821015193919e-03, 1.325825214725e-03, 1.650000000000e-02
2588, -4.677071733467e-03, 1.767766952966e-03, 1.650000000000e-02
2589, -3.897559777890e-03, 2.019866607257e-03, 1.650000000000e-02
2590, -3.118047822312e-03, 2.204792759220e-03, 1.650000000000e-02
2591, -2.338535866734e-03, 2.338535866734e-03, 1.650000000000e-02
2592, -1.559023911156e-03, 2.429563289519e-03, 1.650000000000e-02
2593, -7.795119555779e-04, 2.482578184961e-03, 1.650000000000e-02
2594, 0.000000000000e+00, 2.500000000000e-03, 1.650000000000e-02
2595, 7.795119555779e-04, 2.482578184961e-03, 1.650000000000e-02
2596, 1.559023911156e-03, 2.429563289519e-03, 1.650000000000e-02
2597, 2.338535866734e-03, 2.338535866734e-03, 1.650000000000e-02
2598, 3.118047822312e-03, 2.204792759220e-03, 1.650000000000e-02
2599, 3.897559777890e-03, 2.019866607257e-03, 1.650000000000e-02
2600, 4.677071733467e-03, 1.767766952966e-03, 1.650000000000e-02
2601, -4.485218779502e-03, 2.209708691208e-03, 1.650000000000e-02
2602, -3.737682316252e-03, 2.524833259071e-03, 1.650000000000e-02
2603, -2.990145853002e-03, 2.755990949026e-03, 1.650000000000e-02
2604, -2.242609389751e-03, 2.923169833417e-03, 1.650000000000e-02
2605, -1.495072926501e-03, 3.036954111899e-03, 1.650000000000e-02
2606, -7.475364632504e-04, 3.103222731201e-03, 1.650000000000e-02
2607, 0.000000000000e+00, 3.125000000000e-03, 1.650000000000e-02
2608, 7.475364632504e-04, 3.103222731201e-03, 1.650000000000e-02
2609, 1.495072926501e-03, 3.036954111899e-03, 1.650000000000e-02
2610, 2.242609389751e-03, 2.923169833417e-03, 1.650000000000e-02
2611, 2.990145853002e-03, 2.755990949026e-03, 1.650000000000e-02
2612, 3.737682316252e-03, 2.524833259071e-03, 1.650000000000e-02
2613, 4.485218779502e-03, 2.209708691208e-03, 1.650000000000e-02
2614, -4.238956239453e-03, 2.651650429450e-03, 1.650000000000e-02
2615, -3.532463532878e-03, 3.029799910885e-03, 1.650000000000e-02
2616, -2.825970826302e-03, 3.307189138831e-03, 1.650000000000e-02
2617, -2.119478119727e-03, 3.507803800101e-03, 1.650000000000e-02
2618, -1.412985413151e-03, 3.644344934278e-03, 1.650000000000e-02
2619, -7.064927065755e-04, 3.723867277442e-03, 1.650000000000e-02
2620, 0.000000000000e+00, 3.750000000000e-03, 1.650000000000e-02
2621, 7.064927065755e-04, 3.723867277442e-03, 1.650000000000e-02
2622, 1.412985413151e-03, 3.644344934278e-03, 1.650000000000e-02
2623, 2.119478119727e-03, 3.507803800101e-03, 1.650000000000e-02
2624, 2.825970826302e-03, 3.307189138831e-03, 1.650000000000e-02
2625, 3.532463532878e-03, 3.029799910885e-03, 1.650000000000e-02
2626, 4.238956239453e-03, 2.651650429450e-03, 1.650000000000e-02
2627, -3.928064090618e-03, 3.093592167691e-03, 1.650000000000e-02
2628, -3.273386742181e-03, 3.534766562699e-03, 1.650000000000e-02
2629, -2.618709393745e-03, 3.858387328636e-03, 1.650000000000e-02
2630, -1.964032045309e-03, 4.092437766784e-03, 1.650000000000e-02
2631, -1.309354696873e-03, 4.251735756658e-03, 1.650000000000e-02
2632, -6.546773484363e-04, 4.344511823682e-03, 1.650000000000e-02
2633, 0.000000000000e+00, 4.375000000000e-03, 1.650000000000e-02
2634, 6.546773484363e-04, 4.344511823682e-03, 1.650000000000e-02
2635, 1.309354696873e-03, 4.251735756658e-03, 1.650000000000e-02
2636, 1.964032045309e-03, 4.092437766784e-03, 1.650000000000e-02
2637, 2.618709393745e-03, 3.858387328636e-03, 1.650000000000e-02
2638, 3.273386742181e-03, 3.534766562699e-03, 1.650000000000e-02
2639, 3.928064090618e-03, 3.093592167691e-03, 1.650000000000e-02
2640, -3.535533905933e-03, 3.535533905933e-03, 1.650000000000e-02
2641, -2.946278254944e-03, 4.039733214514e-03, 1.650000000000e-02
2642, -2.357022603955e-03, 4.409585518441e-03, 1.650000000000e-02
2643, -1.767766952966e-03, 4.677071733467e-03, 1.650000000000e-02
2644, -1.178511301978e-03, 4.859126579038e-03, 1.650000000000e-02
2645, -5.892556509888e-04, 4.965156369922e-03, 1.650000000000e-02
2646, 0.000000000000e+00, 5.000000000000e-03, 1.650000000000e-02
2647, 5.892556509888e-04, 4.965156369922e-03, 1.650000000000e-02
2648, 1.178511301978e-03, 4.859126579038e-03, 1.650000000000e-02
2649, 1.767766952966e-03, 4.677071733467e-03, 1.650000000000e-02
2650, 2.357022603955e-03, 4.409585518441e-03, 1.650000000000e-02
2651, 2.946278254944e-03, 4.039733214514e-03, 1.650000000000e-02
2652, 3.535533905933e-03, 3.535533905933e-03, 1.650000000000e-02
2653, -3.535533905933e-03, -3.535533905933e-03, 1.800000000000e-02
2654, -2.946278254944e-03, -4.039733214514e-03, 1.800000000000e-02
2655, -2.357022603955e-03, -4.409585518441e-03, 1.800000000000e-02
2656, -1.767766952966e-03, -4.677071733467e-03, 1.800000000000e-02
2657, -1.178511301978e-03, -4.859126579038e-03, 1.800000000000e-02
2658, -5.892556509888e-04, -4.965156369922e-03, 1.800000000000e-02
2659, 0.000000000000e+00, -5.000000000000e-03, 1.800000000000e-02
2660, 5.892556509888e-04, -4.965156369922e-03, 1.800000000000e-02
2661, 1.178511301978e-03, -4.859126579038e-03, 1.800000000000e-02
2662, 1.767766952966e-03, -4.677071733467e-03, 1.800000000000e-02
2663, 2.357022603955e-03, -4.409585518441e-03, 1.800000000000e-02
2664, 2.946278254944e-03, -4.039733214514e-03, 1.800000000000e-02
2665, 3.535533905933e-03, -3.535533905933e-03, 1.800000000000e-02
2666, -3.928064090618e-03, -3.093592167691e-03, 1.800000000000e-02
2667, -3.273386742181e-03, -3.534766562699e-03, 1.800000000000e-02
2668, -2.618709393745e-03, -3.858387328636e-03, 1.800000000000e-02
2669, -1.964032045309e-03, -4.092437766784e-03, 1.800000000000e-02
2670, -1.309354696873e-03, -4.251735756658e-03, 1.800000000000e-02
2671, -6.546773484363e-04, -4.344511823682e-03, 1.800000000000e-02
2672, 0.000000000000e+00, -4.375000000000e-03, 1.800000000000e-02
2673, 6.546773484363e-04, -4.344511823682e-03, 1.800000000000e-02
2674, 1.309354696873e-03, -4.251735756658e-03, 1.800000000000e-02
2675, 1.964032045309e-03, -4.092437766784e-03, 1.800000000000e-02
2676, 2.618709393745e-03, -3.858387328636e-03, 1.800000000000e-02
2677, 3.273386742181e-03, -3.534766562699e-03, 1.800000000000e-02
2678, 3.928064090618e-03, -3.093592167691e-03, 1.800000000000e-02
2679, -4.238956239453e-03, -2.651650429450e-03, 1.800000000000e-02
2680, -3.532463532878e-03, -3.029799910885e-03, 1.800000000000e-02
2681, -2.825970826302e-03, -3.307189138831e-03, 1.800000000000e-02
2682, -2.119478119727e-03, -3.507803800101e-03, 1.800000000000e-02
2683, -1.412985413151e-03, -3.644344934278e-03, 1.800000000000e-02
2684, -7.064927065755e-04, -3.723867277442e-03, 1.800000000000e-02
2685, 0.000000000000e+00, -3.750000000000e-03, 1.800000000000e-02
2686, 7.064927065755e-04, -3.723867277442e-03, 1.800000000000e-02
2687, 1.412985413151e-03, -3.644344934278e-03, 1.800000000000e-02
2688, 2.119478119727e-03, -3.507803800101e-03, 1.800000000000e-02
2689, 2.825970826302e-03, -3.307189138831e-03, 1.800000000000e-02
2690, 3.532463532878e-03, -3.029799910885e-03, 1.800000000000e-02
2691, 4.238956239453e-03, -2.651650429450e-03, 1.800000000000e-02
2692, -4.485218779502e-03, -2.209708691208e-03, 1.800000000000e-02
2693, -3.737682316252e-03, -2.524833259071e-03, 1.800000000000e-02
2694, -2.990145853002e-03, -2.755990949026e-03, 1.800000000000e-02
2695, -2.242609389751e-03, -2.923169833417e-03, 1.800000000000e-02
2696, -1.495072926501e-03, -3.036954111899e-03, 1.800000000000e-02
2697, -7.475364632504e-04, -3.103222731201e-03, 1.800000000000e-02
2698, 0.000000000000e+00, -3.125000000000e-03, 1.800000000000e-02
2699, 7.475364632504e-04, -3.103222731201e-03, 1.800000000000e-02
2700, 1.495072926501e-03, -3.036954111899e-03, 1.800000000000e-02
2701, 2.242609389751e-03, -2.923169833417e-03, 1.800000000000e-02
2702, 2.990145853002e-03, -2.755990949026e-03, 1.800000000000e-02
2703, 3.737682316252e-03, -2.524833259071e-03, 1.800000000000e-02
2704, 4.485218779502e-03, -2.209708691208e-03, 1.800000000000e-02
2705, -4.677071733467e-03, -1.767766952966e-03, 1.800000000000e-02
2706, -3.897559777890e-03, -2.019866607257e-03, 1.800000000000e-02
2707, -3.118047822312e-03, -2.204792759220e-03, 1.800000000000e-02
2708, -2.338535866734e-03, -2.338535866734e-03, 1.800000000000e-02
2709, -1.559023911156e-03, -2.429563289519e-03, 1.800000000000e-02
2710, -7.795119555779e-04, -2.482578184961e-03, 1.800000000000e-02
2711, 0.000000000000e+00, -2.500000000000e-03, 1.800000000000e-02
2712, 7.795119555779e-04, -2.482578184961e-03, 1.800000000000e-02
2713, 1.559023911156e-03, -2.429563289519e-03, 1.800000000000e-02
2714, 2.338535866734e-03, -2.338535866734e-03, 1.800000000000e-02
2715, 3.118047822312e-03, -2.204792759220e-03, 1.800000000000e-02
2716, 3.897559777890e-03, -2.019866607257e-03, 1.800000000000e-02
2717, 4.677071733467e-03, -1.767766952966e-03, 1.800000000000e-02
2718, -4.821015193919e-03, -1.325825214725e-03, 1.800000000000e-02
2719, -4.017512661599e-03, -1.514899955443e-03, 1.800000000000e-02
2720, -3.214010129279e-03, -1.653594569415e-03, 1.800000000000e-02
2721, -2.410507596960e-03, -1.753901900050e-03, 1.800000000000e-02
2722, -1.607005064640e-03, -1.822172467139e-03, 1.800000000000e-02
2723, -8.035025323199e-04, -1.861933638721e-03, 1.800000000000e-02
2724, 0.000000000000e+00, -1.875000000000e-03, 1.800000000000e-02
2725, 8.035025323199e-04, -1.861933638721e-03, 1.800000000000e-02
2726, 1.607005064640e-03, -1.822172467139e-03, 1.800000000000e-02
2727, 2.410507596960e-03, -1.753901900050e-03, 1.800000000000e-02
2728, 3.214010129279e-03, -1.653594569415e-03, 1.800000000000e-02
2729, 4.017512661599e-03, -1.514899955443e-03, 1.800000000000e-02
2730, 4.821015193919e-03, -1.325825214725e-03, 1.800000000000e-02
2731, -4.921254921257e-03, -8.838834764832e-04, 1.800000000000e-02
2732, -4.101045767714e-03, -1.009933303628e-03, 1.800000000000e-02
2733, -3.280836614172e-03, -1.102396379610e-03, 1.800000000000e-02
2734, -2.460627460629e-03, -1.169267933367e-03, 1.800000000000e-02
2735, -1.640418307086e-03, -1.214781644759e-03, 1.800000000000e-02
2736, -8.202091535429e-04, -1.241289092481e-03, 1.800000000000e-02
2737, 0.000000000000e+00, -1.250000000000e-03, 1.800000000000e-02
2738, 8.202091535429e-04, -1.241289092481e-03, 1.800000000000e-02
2739, 1.640418307086e-03, -1.214781644759e-03, 1.800000000000e-02
2740, 2.460627460629e-03, -1.169267933367e-03, 1.800000000000e-02
2741, 3.280836614172e-03, -1.102396379610e-03, 1.800000000000e-02
2742, 4.101045767714e-03, -1.009933303628e-03, 1.800000000000e-02
2743, 4.921254921257e-03, -8.838834764832e-04, 1.800000000000e-02
2744, -4.980430453284e-03, -4.419417382416e-04, 1.800000000000e-02
2745, -4.150358711070e-03, -5.049666518142e-04, 1.800000000000e-02
2746, -3.320286968856e-03, -5.511981898051e-04, 1.800000000000e-02
2747, -2.490215226642e-03, -5.846339666834e-04, 1.800000000000e-02
2748, -1.660143484428e-03, -6.073908223797e-04, 1.800000000000e-02
2749, -8.300717422140e-04, -6.206445462403e-04, 1.800000000000e-02
2750, 0.000000000000e+00, -6.250000000000e-04, 1.800000000000e-02
2751, 8.300717422140e-04, -6.206445462403e-04, 1.800000000000e-02
2752, 1.660143484428e-03, -6.073908223797e-04, 1.800000000000e-02
2753, 2.490215226642e-03, -5.846339666834e-04, 1.800000000000e-02
2754, 3.320286968856e-03, -5.511981898051e-04, 1.800000000000e-02
2755, 4.150358711070e-03, -5.049666518142e-04, 1.800000000000e-02
2756, 4.980430453284e-03, -4.419417382416e-04, 1.800000000000e-02
2757, -5.000000000000e-03, 0.000000000000e+00, 1.800000000000e-02
2758, -4.166666666667e-03, 0.000000000000e+00, 1.800000000000e-02
2759, -3.333333333333e-03, 0.000000000000e+00, 1.800000000000e-02
2760, -2.500000000000e-03, 0.000000000000e+00, 1.800000000000e-02
2761, -1.666666666667e-03, 0.000000000000e+00, 1.800000000000e-02
2762, -8.333333333333e-04, 0.000000000000e+00, 1.800000000000e-02
2763, 0.000000000000e+00, 0.000000000000e+00, 1.800000000000e-02
2764, 8.333333333333e-04, 0.000000000000e+00, 1.800000000000e-02
2765, 1.666666666667e-03, 0.000000000000e+00, 1.800000000000e-02
2766, 2.500000000000e-03, 0.000000000000e+00, 1.800000000000e-02
2767, 3.333333333333e-03, 0.000000000000e+00, 1.800000000000e-02
2768, 4.166666666667e-03, 0.000000000000e+00, 1.800000000000e-02
2769, 5.000000000000e-03, 0.000000000000e+00, 1.800000000000e-02
2770, -4.980430453284e-03, 4.419417382416e-04, 1.800000000000e-02
2771, -4.150358711070e-03, 5.049666518142e-04, 1.800000000000e-02
2772, -3.320286968856e-03, 5.511981898051e-04, 1.800000000000e-02
2773, -2.490215226642e-03, 5.846339666834e-04, 1.800000000000e-02
2774, -1.660143484428e-03, 6.073908223797e-04, 1.800000000000e-02
2775, -8.300717422140e-04, 6.206445462403e-04, 1.800000000000e-02
2776, 0.000000000000e+00, 6.250000000000e-04, 1.800000000000e-02
2777, 8.300717422140e-04, 6.206445462403e-04, 1.800000000000e-02
2778, 1.660143484428e-03, 6.073908223797e-04, 1.800000000000e-02
2779, 2.490215226642e-03, 5.846339666834e-04, 1.800000000000e-02
2780, 3.320286968856e-03, 5.511981898051e-04, 1.800000000000e-02
2781, 4.150358711070e-03, 5.049666518142e-04, 1.800000000000e-02
2782, 4.980430453284e-03, 4.419417382416e-04, 1.800000000000e-02
2783, -4.921254921257e-03, 8.838834764832e-04, 1.800000000000e-02
2784, -4.101045767714e-03, 1.009933303628e-03, 1.800000000000e-02
2785, -3.280836614172e-03, 1.102396379610e-03, 1.800000000000e-02
2786, -2.460627460629e-03, 1.169267933367e-03, 1.800000000000e-02
2787, -1.640418307086e-03, 1.214781644759e-03, 1.800000000000e-02
2788, -8.202091535429e-04, 1.241289092481e-03, 1.800000000000e-02
2789, 0.000000000000e+00, 1.250000000000e-03, 1.800000000000e-02
2790, 8.202091535429e-04, 1.241289092481e-03, 1.800000000000e-02
2791, 1.640418307086e-03, 1.214781644759e-03, 1.800000000000e-02
2792, 2.460627460629e-03, 1.169267933367e-03, 1.800000000000e-02
2793, 3.280836614172e-03, 1.102396379610e-03, 1.800000000000e-02
2794, 4.101045767714e-03, 1.009933303628e-03, 1.800000000000e-02
2795, 4.921254921257e-03, 8.838834764832e-04, 1.800000000000e-02
2796, -4.821015193919e-03, 1.325825214725e-03, 1.800000000000e-02
2797, -4.017512661599e-03, 1.514899955443e-03, 1.800000000000e-02
2798, -3.214010129279e-03, 1.653594569415e-03, 1.800000000000e-02
2799, -2.410507596960e-03, 1.753901900050e-03, 1.800000000000e-02
2800, -1.607005064640e-03, 1.822172467139e-03, 1.800000000000e-02
2801, -8.035025323199e-04, 1.861933638721e-03, 1.800000000000e-02
2802, 0.000000000000e+00, 1.875000000000e-03, 1.800000000000e-02
2803, 8.035025323199e-04, 1.861933638721e-03, 1.800000000000e-02
2804, 1.607005064640e-03, 1.822172467139e-03, 1.800000000000e-02
2805, 2.410507596960e-03, 1.753901900050e-03, 1.800000000000e-02
2806, 3.214010129279e-03, 1.653594569415e-03, 1.800000000000e-02
2807, 4.017512661599e-03, 1.514899955443e-03, 1.800000000000e-02
2808, 4.821015193919e-03, 1.325825214725e-03, 1.800000000000e-02
2809, -4.677071733467e-03, 1.767766952966e-03, 1.800000000000e-02
2810, -3.897559777890e-03, 2.019866607257e-03, 1.800000000000e-02
2811, -3.118047822312e-03, 2.204792759220e-03, 1.800000000000e-02
2812, -2.338535866734e-03, 2.338535866734e-03, 1.800000000000e-02
2813, -1.559023911156e-03, 2.429563289519e-03, 1.800000000000e-02
2814, -7.795119555779e-04, 2.482578184961e-03, 1.800000000000e-02
2815, 0.000000000000e+00, 2.500000000000e-03, 1.800000000000e-02
2816, 7.795119555779e-04, 2.482578184961e-03, 1.800000000000e-02
2817, 1.559023911156e-03, 2.429563289519e-03, 1.800000000000e-02
2818, 2.338535866734e-03, 2.338535866734e-03, 1.800000000000e-02
2819, 3.118047822312e-03, 2.204792759220e-03, 1.800000000000e-02
2820, 3.897559777890e-03, 2.019866607257e-03, 1.800000000000e-02
2821, 4.677071733467e-03, 1.767766952966e-03, 1.800000000000e-02
2822, -4.485218779502e-03, 2.209708691208e-03, 1.800000000000e-02
2823, -3.737682316252e-03, 2.524833259071e-03, 1.800000000000e-02
2824, -2.990145853002e-03, 2.755990949026e-03, 1.800000000000e-02
2825, -2.242609389751e-03, 2.923169833417e-03, 1.800000000000e-02
2826, -1.495072926501e-03, 3.036954111899e-03, 1.800000000000e-02
2827, -7.475364632504e-04, 3.103222731201e-03, 1.800000000000e-02
2828, 0.000000000000e+00, 3.125000000000e-03, 1.800000000000e-02
2829, 7.475364632504e-04, 3.103222731201e-03, 1.800000000000e-02
2830, 1.495072926501e-03, 3.036954111899e-03, 1.800000000000e-02
2831, 2.242609389751e-03, 2.923169833417e-03, 1.800000000000e-02
2832, 2.990145853002e-03, 2.755990949026e-03, 1.800000000000e-02
2833, 3.737682316252e-03, 2.524833259071e-03, 1.800000000000e-02
2834, 4.485218779502e-03, 2.209708691208e-03, 1.800000000000e-02
2835, -4.238956239453e-03, 2.651650429450e-03, 1.800000000000e-02
2836, -3.532463532878e-03, 3.029799910885e-03, 1.800000000000e-02
2837, -2.825970826302e-03, 3.307189138831e-03, 1.800000000000e-02
2838, -2.119478119727e-03, 3.507803800101e-03, 1.800000000000e-02
2839, -1.412985413151e-03, 3.644344934278e-03, 1.800000000000e-02
2840, -7.064927065755e-04, 3.723867277442e-03, 1.800000000000e-02
2841, 0.000000000000e+00, 3.750000000000e-03, 1.800000000000e-02
2842, 7.064927065755e-04, 3.723867277442e-03, 1.800000000000e-02
2843, 1.412985413151e-03, 3.644344934278e-03, 1.800000000000e-02
2844, 2.119478119727e-03, 3.507803800101e-03, 1.800000000000e-02
2845, 2.825970826302e-03, 3.307189138831e-03, 1.800000000000e-02
2846, 3.532463532878e-03, 3.029799910885e-03, 1.800000000000e-02
2847, 4.238956239453e-03, 2.651650429450e-03, 1.800000000000e-02
2848, -3.928064090618e-03, 3.093592167691e-03, 1.800000000000e-02
2849, -3.273386742181e-03, 3.534766562699e-03, 1.800000000000e-02
2850, -2.618709393745e-03, 3.858387328636e-03, 1.800000000000e-02
2851, -1.964032045309e-03, 4.092437766784e-03, 1.800000000000e-02
2852, -1.309354696873e-03, 4.251735756658e-03, 1.800000000000e-02
2853, -6.546773484363e-04, 4.344511823682e-03, 1.800000000000e-02
2854, 0.000000000000e+00, 4.375000000000e-03, 1.800000000000e-02
2855, 6.546773484363e-04, 4.344511823682e-03, 1.800000000000e-02
2856, 1.309354696873e-03, 4.251735756658e-03, 1.800000000000e-02
2857, 1.964032045309e-03, 4.092437766784e-03, 1.800000000000e-02
2858, 2.618709393745e-03, 3.858387328636e-03, 1.800000000000e-02
2859, 3.273386742181e-03, 3.534766562699e-03, 1.800000000000e-02
2860, 3.928064090618e-03, 3.093592167691e-03, 1.800000000000e-02
2861, -3.535533905933e-03, 3.535533905933e-03, 1.800000000000e-02
2862, -2.946278254944e-03, 4.039733214514e-03, 1.800000000000e-02
2863, -2.357022603955e-03, 4.409585518441e-03, 1.800000000000e-02
2864, -1.767766952966e-03, 4.677071733467e-03, 1.800000000000e-02
2865, -1.178511301978e-03, 4.859126579038e-03, 1.800000000000e-02
2866, -5.892556509888e-04, 4.965156369922e-03, 1.800000000000e-02
2867, 0.000000000000e+00, 5.000000000000e-03, 1.800000000000e-02
2868, 5.892556509888e-04, 4.965156369922e-03, 1.800000000000e-02
2869, 1.178511301978e-03, 4.859126579038e-03, 1.800000000000e-02
2870, 1.767766952966e-03, 4.677071733467e-03, 1.800000000000e-02
2871, 2.357022603955e-03, 4.409585518441e-03, 1.800000000000e-02
2872, 2.946278254944e-03, 4.039733214514e-03, 1.800000000000e-02
2873, 3.535533905933e-03, 3.535533905933e-03, 1.800000000000e-02
2874, -3.535533905933e-03, -3.535533905933e-03, 1.950000000000e-02
2875, -2.946278254944e-03, -4.039733214514e-03, 1.950000000000e-02
2876, -2.357022603955e-03, -4.409585518441e-03, 1.950000000000e-02
2877, -1.767766952966e-03, -4.677071733467e-03, 1.950000000000e-02
2878, -1.178511301978e-03, -4.859126579038e-03, 1.950000000000e-02
2879, -5.892556509888e-04, -4.965156369922e-03, 1.950000000000e-02
2880, 0.000000000000e+00, -5.000000000000e-03, 1.950000000000e-02
2881, 5.892556509888e-04, -4.965156369922e-03, 1.950000000000e-02
2882, 1.178511301978e-03, -4.859126579038e-03, 1.950000000000e-02
2883, 1.767766952966e-03, -4.677071733467e-03, 1.950000000000e-02
2884, 2.357022603955e-03, -4.409585518441e-03, 1.950000000000e-02
2885, 2.946278254944e-03, -4.039733214514e-03, 1.950000000000e-02
2886, 3.535533905933e-03, -3.535533905933e-03, 1.950000000000e-02
2887, -3.928064090618e-03, -3.093592167691e-03, 1.950000000000e-02
2888, -3.273386742181e-03, -3.534766562699e-03, 1.950000000000e-02
2889, -2.618709393745e-03, -3.858387328636e-03, 1.950000000000e-02
2890, -1.964032045309e-03, -4.092437766784e-03, 1.950000000000e-02
2891, -1.309354696873e-03, -4.251735756658e-03, 1.950000000000e-02
2892, -6.546773484363e-04, -4.344511823682e-03, 1.950000000000e-02
2893, 0.000000000000e+00, -4.375000000000e-03, 1.950000000000e-02
2894, 6.546773484363e-04, -4.344511823682e-03, 1.950000000000e-02
2895, 1.309354696873e-03, -4.251735756658e-03, 1.950000000000e-02
2896, 1.964032045309e-03, -4.092437766784e-03, 1.950000000000e-02
2897, 2.618709393745e-03, -3.858387328636e-03, 1.950000000000e-02
2898, 3.273386742181e-03, -3.534766562699e-03, 1.950000000000e-02
2899, 3.928064090618e-03, -3.093592167691e-03, 1.950000000000e-02
2900, -4.238956239453e-03, -2.651650429450e-03, 1.950000000000e-02
2901, -3.532463532878e-03, -3.029799910885e-03, 1.950000000000e-02
2902, -2.825970826302e-03, -3.307189138831e-03, 1.950000000000e-02
2903, -2.119478119727e-03, -3.507803800101e-03, 1.950000000000e-02
2904, -1.412985413151e-03, -3.644344934278e-03, 1.950000000000e-02
2905, -7.064927065755e-04, -3.723867277442e-03, 1.950000000000e-02
2906, 0.000000000000e+00, -3.750000000000e-03, 1.950000000000e-02
2907, 7.064927065755e-04, -3.723867277442e-03, 1.950000000000e-02
2908, 1.412985413151e-03, -3.644344934278e-03, 1.950000000000e-02
2909, 2.119478119727e-03, -3.507803800101e-03, 1.950000000000e-02
2910, 2.825970826302e-03, -3.307189138831e-03, 1.950000000000e-02
2911, 3.532463532878e-03, -3.029799910885e-03, 1.950000000000e-02
2912, 4.238956239453e-03, -2.651650429450e-03, 1.950000000000e-02
2913, -4.485218779502e-03, -2.209708691208e-03, 1.950000000000e-02
2914, -3.737682316252e-03, -2.524833259071e-03, 1.950000000000e-02
2915, -2.990145853002e-03, -2.755990949026e-03, 1.950000000000e-02
2916, -2.242609389751e-03, -2.923169833417e-03, 1.950000000000e-02
2917, -1.495072926501e-03, -3.036954111899e-03, 1.950000000000e-02
2918, -7.475364632504e-04, -3.103222731201e-03, 1.950000000000e-02
2919, 0.000000000000e+00, -3.125000000000e-03, 1.950000000000e-02
2920, 7.475364632504e-04, -3.103222731201e-03, 1.950000000000e-02
2921, 1.495072926501e-03, -3.036954111899e-03, 1.950000000000e-02
2922, 2.242609389751e-03, -2.923169833417e-03, 1.950000000000e-02
2923, 2.990145853002e-03, -2.755990949026e-03, 1.950000000000e-02
2924, 3.737682316252e-03, -2.524833259071e-03, 1.950000000000e-02
2925, 4.485218779502e-03, -2.209708691208e-03, 1.950000000000e-02
2926, -4.677071733467e-03, -1.767766952966e-03, 1.950000000000e-02
2927, -3.897559777890e-03, -2.019866607257e-03, 1.950000000000e-02
2928, -3.118047822312e-03, -2.204792759220e-03, 1.950000000000e-02
2929, -2.338535866734e-03, -2.338535866734e-03, 1.950000000000e-02
2930, -1.559023911156e-03, -2.429563289519e-03, 1.950000000000e-02
2931, -7.795119555779e-04, -2.482578184961e-03, 1.950000000000e-02
2932, 0.000000000000e+00, -2.500000000000e-03, 1.950000000000e-02
2933, 7.795119555779e-04, -2.482578184961e-03, 1.950000000000e-02
2934, 1.559023911156e-03, -2.429563289519e-03, 1.950000000000e-02
2935, 2.338535866734e-03, -2.338535866734e-03, 1.950000000000e-02
2936, 3.118047822312e-03, -2.204792759220e-03, 1.950000000000e-02
2937, 3.897559777890e-03, -2.019866607257e-03, 1.950000000000e-02
2938, 4.677071733467e-03, -1.767766952966e-03, 1.950000000000e-02
2939, -4.821015193919e-03, -1.325825214725e-03, 1.950000000000e-02
2940, -4.017512661599e-03, -1.514899955443e-03, 1.950000000000e-02
2941, -3.214010129279e-03, -1.653594569415e-03, 1.950000000000e-02
2942, -2.410507596960e-03, -1.753901900050e-03, 1.950000000000e-02
2943, -1.607005064640e-03, -1.822172467139e-03, 1.950000000000e-02
2944, -8.035025323199e-04, -1.861933638721e-03, 1.950000000000e-02
2945, 0.000000000000e+00, -1.875000000000e-03, 1.950000000000e-02
2946, 8.035025323199e-04, -1.861933638721e-03, 1.950000000000e-02
2947, 1.607005064640e-03, -1.822172467139e-03, 1.950000000000e-02
2948, 2.410507596960e-03, -1.753901900050e-03, 1.950000000000e-02
2949, 3.214010129279e-03, -1.653594569415e-03, 1.950000000000e-02
2950, 4.017512661599e-03, -1.514899955443e-03, 1.950000000000e-02
2951, 4.821015193919e-03, -1.325825214725e-03, 1.950000000000e-02
2952, -4.921254921257e-03, -8.838834764832e-04, 1.950000000000e-02
2953, -4.101045767714e-03, -1.009933303628e-03, 1.950000000000e-02
2954, -3.280836614172e-03, -1.102396379610e-03, 1.950000000000e-02
2955, -2.460627460629e-03, -1.169267933367e-03, 1.950000000000e-02
2956, -1.640418307086e-03, -1.214781644759e-03, 1.950000000000e-02
2957, -8.202091535429e-04, -1.241289092481e-03, 1.950000000000e-02
2958, 0.000000000000e+00, -1.250000000000e-03, 1.950000000000e-02
2959, 8.202091535429e-04, -1.241289092481e-03, 1.950000000000e-02
2960, 1.640418307086e-03, -1.214781644759e-03, 1.950000000000e-02
2961, 2.460627460629e-03, -1.169267933367e-03, 1.950000000000e-02
2962, 3.280836614172e-03, -1.102396379610e-03, 1.950000000000e-02
2963, 4.101045767714e-03, -1.009933303628e-03, 1.950000000000e-02
2964, 4.921254921257e-03, -8.838834764832e-04, 1.950000000000e-02
2965, -4.980430453284e-03, -4.419417382416e-04, 1.950000000000e-02
2966, -4.150358711070e-03, -5.049666518142e-04, 1.950000000000e-02
2967, -3.320286968856e-03, -5.511981898051e-04, 1.950000000000e-02
2968, -2.490215226642e-03, -5.846339666834e-04, 1.950000000000e-02
2969, -1.660143484428e-03, -6.073908223797e-04, 1.950000000000e-02
2970, -8.300717422140e-04, -6.206445462403e-04, 1.950000000000e-02
2971, 0.000000000000e+00, -6.250000000000e-04, 1.950000000000e-02
2972, 8.300717422140e-04, -6.206445462403e-04, 1.950000000000e-02
2973, 1.660143484428e-03, -6.073908223797e-04, 1.950000000000e-02
2974, 2.490215226642e-03, -5.846339666834e-04, 1.950000000000e-02
2975, 3.320286968856e-03, -5.511981898051e-04, 1.950000000000e-02
2976, 4.150358711070e-03, -5.049666518142e-04, 1.950000000000e-02
2977, 4.980430453284e-03, -4.419417382416e-04, 1.950000000000e-02
2978, -5.000000000000e-03, 0.000000000000e+00, 1.950000000000e-02
2979, -4.166666666667e-03, 0.000000000000e+00, 1.950000000000e-02
2980, -3.333333333333e-03, 0.000000000000e+00, 1.950000000000e-02
2981, -2.500000000000e-03, 0.000000000000e+00, 1.950000000000e-02
2982, -1.666666666667e-03, 0.000000000000e+00, 1.950000000000e-02
2983, -8.333333333333e-04, 0.000000000000e+00, 1.950000000000e-02
2984, 0.000000000000e+00, 0.000000000000e+00, 1.950000000000e-02
2985, 8.333333333333e-04, 0.000000000000e+00, 1.950000000000e-02
2986, 1.666666666667e-03, 0.000000000000e+00, 1.950000000000e-02
2987, 2.500000000000e-03, 0.000000000000e+00, 1.950000000000e-02
2988, 3.333333333333e-03, 0.000000000000e+00, 1.950000000000e-02
2989, 4.166666666667e-03, 0.000000000000e+00, 1.950000000000e-02
2990, 5.000000000000e-03, 0.000000000000e+00, 1.950000000000e-02
2991, -4.980430453284e-03, 4.419417382416e-04, 1.950000000000e-02
2992, -4.150358711070e-03, 5.049666518142e-04, 1.950000000000e-02
2993, -3.320286968856e-03, 5.511981898051e-04, 1.950000000000e-02
2994, -2.490215226642e-03, 5.846339666834e-04, 1.950000000000e-02
2995, -1.660143484428e-03, 6.073908223797e-04, 1.950000000000e-02
2996, -8.300717422140e-04, 6.206445462403e-04, 1.950000000000e-02
2997, 0.000000000000e+00, 6.250000000000e-04, 1.950000000000e-02
2998, 8.300717422140e-04, 6.206445462403e-04, 1.950000000000e-02
2999, 1.660143484428e-03, 6.073908223797e-04, 1.950000000000e-02
3000, 2.490215226642e-03, 5.846339666834e-04, 1.950000000000e-02
3001, 3.320286968856e-03, 5.511981898051e-04, 1.950000000000e-02
3002, 4.150358711070e-03, 5.049666518142e-04, 1.950000000000e-02
3003, 4.980430453284e-03, 4.419417382416e-04, 1.950000000000e-02
3004, -4.921254921257e-03, 8.838834764832e-04, 1.950000000000e-02
3005, -4.101045767714e-03, 1.009933303628e-03, 1.950000000000e-02
3006, -3.280836614172e-03, 1.102396379610e-03, 1.950000000000e-02
3007, -2.460627460629e-03, 1.169267933367e-03, 1.950000000000e-02
3008, -1.640418307086e-03, 1.214781644759e-03, 1.950000000000e-02
3009, -8.202091535429e-04, 1.241289092481e-03, 1.950000000000e-02
3010, 0.000000000000e+00, 1.250000000000e-03, 1.950000000000e-02
3011, 8.202091535429e-04, 1.241289092481e-03, 1.950000000000e-02
3012, 1.640418307086e-03, 1.214781644759e-03, 1.950000000000e-02
3013, 2.460627460629e-03, 1.169267933367e-03, 1.950000000000e-02
3014, 3.280836614172e-03, 1.102396379610e-03, 1.950000000000e-02
3015, 4.101045767714e-03, 1.009933303628e-03, 1.950000000000e-02
3016, 4.921254921257e-03, 8.838834764832e-04, 1.950000000000e-02
3017, -4.821015193919e-03, 1.325825214725e-03, 1.950000000000e-02
3018, -4.017512661599e-03, 1.514899955443e-03, 1.950000000000e-02
3019, -3.214010129279e-03, 1.653594569415e-03, 1.950000000000e-02
3020, -2.410507596960e-03, 1.753901900050e-03, 1.950000000000e-02
3021, -1.607005064640e-03, 1.822172467139e-03, 1.950000000000e-02
3022, -8.035025323199e-04, 1.861933638721e-03, 1.950000000000e-02
3023, 0.000000000000e+00, 1.875000000000e-03, 1.950000000000e-02
3024, 8.035025323199e-04, 1.861933638721e-03, 1.950000000000e-02
3025, 1.607005064640e-03, 1.822172467139e-03, 1.950000000000e-02
3026, 2.410507596960e-03, 1.753901900050e-03, 1.950000000000e-02
3027, 3.214010129279e-03, 1.653594569415e-03, 1.950000000000e-02
3028, 4.017512661599e-03, 1.514899955443e-03, 1.950000000000e-02
3029, 4.821015193919e-03, 1.325825214725e-03, 1.950000000000e-02
3030, -4.677071733467e-03, 1.767766952966e-03, 1.950000000000e-02
3031, -3.897559777890e-03, 2.019866607257e-03, 1.950000000000e-02
3032, -3.118047822312e-03, 2.204792759220e-03, 1.950000000000e-02
3033, -2.338535866734e-03, 2.338535866734e-03, 1.950000000000e-02
3034, -1.559023911156e-03, 2.429563289519e-03, 1.950000000000e-02
3035, -7.795119555779e-04, 2.482578184961e-03, 1.950000000000e-02
3036, 0.000000000000e+00, 2.500000000000e-03, 1.950000000000e-02
3037, 7.795119555779e-04, 2.482578184961e-03, 1.950000000000e-02
3038, 1.559023911156e-03, 2.429563289519e-03, 1.950000000000e-02
3039, 2.338535866734e-03, 2.338535866734e-03, 1.950000000000e-02
3040, 3.118047822312e-03, 2.204792759220e-03, 1.950000000000e-02
3041, 3.897559777890e-03, 2.019866607257e-03, 1.950000000000e-02
3042, 4.677071733467e-03, 1.767766952966e-03, 1.950000000000e-02
3043, -4.485218779502e-03, 2.209708691208e-03, 1.950000000000e-02
3044, -3.737682316252e-03, 2.524833259071e-03, 1.950000000000e-02
3045, -2.990145853002e-03, 2.755990949026e-03, 1.950000000000e-02
3046, -2.242609389751e-03, 2.923169833417e-03, 1.950000000000e-02
3047, -1.495072926501e-03, 3.036954111899e-03, 1.950000000000e-02
3048, -7.475364632504e-04, 3.103222731201e-03, 1.950000000000e-02
3049, 0.000000000000e+00, 3.125000000000e-03, 1.950000000000e-02
3050, 7.475364632504e-04, 3.103222731201e-03, 1.950000000000e-02
3051, 1.495072926501e-03, 3.036954111899e-03, 1.950000000000e-02
3052, 2.242609389751e-03, 2.923169833417e-03, 1.950000000000e-02
3053, 2.990145853002e-03, 2.755990949026e-03, 1.950000000000e-02
3054, 3.737682316252e-03, 2.524833259071e-03, 1.950000000000e-02
3055, 4.485218779502e-03, 2.209708691208e-03, 1.950000000000e-02
3056, -4.238956239453e-03, 2.651650429450e-03, 1.950000000000e-02
3057, -3.532463532878e-03, 3.029799910885e-03, 1.950000000000e-02
3058, -2.825970826302e-03, 3.307189138831e-03, 1.950000000000e-02
3059, -2.119478119727e-03, 3.507803800101e-03, 1.950000000000e-02
3060, -1.412985413151e-03, 3.644344934278e-03, 1.950000000000e-02
3061, -7.064927065755e-04, 3.723867277442e-03, 1.950000000000e-02
3062, 0.000000000000e+00, 3.750000000000e-03, 1.950000000000e-02
3063, 7.064927065755e-04, 3.723867277442e-03, 1.950000000000e-02
3064, 1.412985413151e-03, 3.644344934278e-03, 1.950000000000e-02
3065, 2.119478119727e-03, 3.507803800101e-03, 1.950000000000e-02
3066, 2.825970826302e-03, 3.307189138831e-03, 1.950000000000e-02
3067, 3.532463532878e-03, 3.029799910885e-03, 1.950000000000e-02
3068, 4.238956239453e-03, 2.651650429450e-03, 1.950000000000e-02
3069, -3.928064090618e-03, 3.093592167691e-03, 1.950000000000e-02
3070, -3.273386742181e-03, 3.534766562699e-03, 1.950000000000e-02
3071, -2.618709393745e-03, 3.858387328636e-03, 1.950000000000e-02
3072, -1.964032045309e-03, 4.092437766784e-03, 1.950000000000e-02
3073, -1.309354696873e-03, 4.251735756658e-03, 1.950000000000e-02
3074, -6.546773484363e-04, 4.344511823682e-03, 1.950000000000e-02
3075, 0.000000000000e+00, 4.375000000000e-03, 1.950000000000e-02
3076, 6.546773484363e-04, 4.344511823682e-03, 1.950000000000e-02
3077, 1.309354696873e-03, 4.251735756658e-03, 1.950000000000e-02
3078, 1.964032045309e-03, 4.092437766784e-03, 1.950000000000e-02
3079, 2.618709393745e-03, 3.858387328636e-03, 1.950000000000e-02
3080, 3.273386742181e-03, 3.534766562699e-03, 1.950000000000e-02
3081, 3.928064090618e-03, 3.093592167691e-03, 1.950000000000e-02
3082, -3.535533905933e-03, 3.535533905933e-03, 1.950000000000e-02
3083, -2.946278254944e-03, 4.039733214514e-03, 1.950000000000e-02
3084, -2.357022603955e-03, 4.409585518441e-03, 1.950000000000e-02
3085, -1.767766952966e-03, 4.677071733467e-03, 1.950000000000e-02
3086, -1.178511301978e-03, 4.859126579038e-03, 1.950000000000e-02
3087, -5.892556509888e-04, 4.965156369922e-03, 1.950000000000e-02
3088, 0.000000000000e+00, 5.000000000000e-03, 1.950000000000e-02
3089, 5.892556509888e-04, 4.965156369922e-03, 1.950000000000e-02
3090, 1.178511301978e-03, 4.859126579038e-03, 1.950000000000e-02
3091, 1.767766952966e-03, 4.677071733467e-03, 1.950000000000e-02
3092, 2.357022603955e-03, 4.409585518441e-03, 1.950000000000e-02
3093, 2.946278254944e-03, 4.039733214514e-03, 1.950000000000e-02
3094, 3.535533905933e-03, 3.535533905933e-03, 1.950000000000e-02
3095, -3.535533905933e-03, -3.535533905933e-03, 2.100000000000e-02
3096, -2.946278254944e-03, -4.039733214514e-03, 2.100000000000e-02
3097, -2.357022603955e-03, -4.409585518441e-03, 2.100000000000e-02
3098, -1.767766952966e-03, -4.677071733467e-03, 2.100000000000e-02
3099, -1.178511301978e-03, -4.859126579038e-03, 2.100000000000e-02
3100, -5.892556509888e-04, -4.965156369922e-03, 2.100000000000e-02
3101, 0.000000000000e+00, -5.000000000000e-03, 2.100000000000e-02
3102, 5.892556509888e-04, -4.965156369922e-03, 2.100000000000e-02
3103, 1.178511301978e-03, -4.859126579038e-03, 2.100000000000e-02
3104, 1.767766952966e-03, -4.677071733467e-03, 2.100000000000e-02
3105, 2.357022603955e-03, -4.409585518441e-03, 2.100000000000e-02
3106, 2.946278254944e-03, -4.039733214514e-03, 2.100000000000e-02
3107, 3.535533905933e-03, -3.535533905933e-03, 2.100000000000e-02
3108, -3.928064090618e-03, -3.093592167691e-03, 2.100000000000e-02
3109, -3.273386742181e-03, -3.534766562699e-03, 2.100000000000e-02
3110, -2.618709393745e-03, -3.858387328636e-03, 2.100000000000e-02
3111, -1.964032045309e-03, -4.092437766784e-03, 2.100000000000e-02
3112, -1.309354696873e-03, -4.251735756658e-03, 2.100000000000e-02
3113, -6.546773484363e-04, -4.344511823682e-03, 2.100000000000e-02
3114, 0.000000000000e+00, -4.375000000000e-03, 2.100000000000e-02
3115, 6.546773484363e-04, -4.344511823682e-03, 2.100000000000e-02
3116, 1.309354696873e-03, -4.251735756658e-03, 2.100000000000e-02
3117, 1.964032045309e-03, -4.092437766784e-03, 2.100000000000e-02
3118, 2.618709393745e-03, -3.858387328636e-03, 2.100000000000e-02
3119, 3.273386742181e-03, -3.534766562699e-03, 2.100000000000e-02
3120, 3.928064090618e-03, -3.093592167691e-03, 2.100000000000e-02
3121, -4.238956239453e-03, -2.651650429450e-03, 2.100000000000e-02
3122, -3.532463532878e-03, -3.029799910885e-03, 2.100000000000e-02
3123, -2.825970826302e-03, -3.307189138831e-03, 2.100000000000e-02
3124, -2.119478119727e-03, -3.507803800101e-03, 2.100000000000e-02
3125, -1.412985413151e-03, -3.644344934278e-03, 2.100000000000e-02
3126, -7.064927065755e-04, -3.723867277442e-03, 2.100000000000e-02
3127, 0.000000000000e+00, -3.750000000000e-03, 2.100000000000e-02
3128, 7.064927065755e-04, -3.723867277442e-03, 2.100000000000e-02
3129, 1.412985413151e-03, -3.644344934278e-03, 2.100000000000e-02
3130, 2.119478119727e-03, -3.507803800101e-03, 2.100000000000e-02
3131, 2.825970826302e-03, -3.307189138831e-03, 2.100000000000e-02
3132, 3.532463532878e-03, -3.029799910885e-03, 2.100000000000e-02
3133, 4.238956239453e-03, -2.651650429450e-03, 2.100000000000e-02
3134, -4.485218779502e-03, -2.209708691208e-03, 2.100000000000e-02
3135, -3.737682316252e-03, -2.524833259071e-03, 2.100000000000e-02
3136, -2.990145853002e-03, -2.755990949026e-03, 2.100000000000e-02
3137, -2.242609389751e-03, -2.923169833417e-03, 2.100000000000e-02
3138, -1.495072926501e-03, -3.036954111899e-03, 2.100000000000e-02
3139, -7.475364632504e-04, -3.103222731201e-03, 2.100000000000e-02
3140, 0.000000000000e+00, -3.125000000000e-03, 2.100000000000e-02
3141, 7.475364632504e-04, -3.103222731201e-03, 2.100000000000e-02
3142, 1.495072926501e-03, -3.036954111899e-03, 2.100000000000e-02
3143, 2.242609389751e-03, -2.923169833417e-03, 2.100000000000e-02
3144, 2.990145853002e-03, -2.755990949026e-03, 2.100000000000e-02
3145, 3.737682316252e-03, -2.524833259071e-03, 2.100000000000e-02
3146, 4.485218779502e-03, -2.209708691208e-03, 2.100000000000e-02
3147, -4.677071733467e-03, -1.767766952966e-03, 2.100000000000e-02
3148, -3.897559777890e-03, -2.019866607257e-03, 2.100000000000e-02
3149, -3.118047822312e-03, -2.204792759220e-03, 2.100000000000e-02
3150, -2.338535866734e-03, -2.338535866734e-03, 2.100000000000e-02
3151, -1.559023911156e-03, -2.429563289519e-03, 2.100000000000e-02
3152, -7.795119555779e-04, -2.482578184961e-03, 2.100000000000e-02
3153, 0.000000000000e+00, -2.500000000000e-03, 2.100000000000e-02
3154, 7.795119555779e-04, -2.482578184961e-03, 2.100000000000e-02
3155, 1.559023911156e-03, -2.429563289519e-03, 2.100000000000e-02
3156, 2.338535866734e-03, -2.338535866734e-03, 2.100000000000e-02
3157, 3.118047822312e-03, -2.204792759220e-03, 2.100000000000e-02
3158, 3.897559777890e-03, -2.019866607257e-03, 2.100000000000e-02
3159, 4.677071733467e-03, -1.767766952966e-03, 2.100000000000e-02
3160, -4.821015193919e-03, -1.325825214725e-03, 2.100000000000e-02
3161, -4.017512661599e-03, -1.514899955443e-03, 2.100000000000e-02
3162, -3.214010129279e-03, -1.653594569415e-03, 2.100000000000e-02
3163, -2.410507596960e-03, -1.753901900050e-03, 2.100000000000e-02
3164, -1.607005064640e-03, -1.822172467139e-03, 2.100000000000e-02
3165, -8.035025323199e-04, -1.861933638721e-03, 2.100000000000e-02
3166, 0.000000000000e+00, -1.875000000000e-03, 2.100000000000e-02
3167, 8.035025323199e-04, -1.861933638721e-03, 2.100000000000e-02
3168, 1.607005064640e-03, -1.822172467139e-03, 2.100000000000e-02
3169, 2.410507596960e-03, -1.753901900050e-03, 2.100000000000e-02
3170, 3.214010129279e-03, -1.653594569415e-03, 2.100000000000e-02
3171, 4.017512661599e-03, -1.514899955443e-03, 2.100000000000e-02
3172, 4.821015193919e-03, -1.325825214725e-03, 2.100000000000e-02
3173, -4.921254921257e-03, -8.838834764832e-04, 2.100000000000e-02
3174, -4.101045767714e-03, -1.009933303628e-03, 2.100000000000e-02
3175, -3.280836614172e-03, -1.102396379610e-03, 2.100000000000e-02
3176, -2.460627460629e-03, -1.169267933367e-03, 2.100000000000e-02
3177, -1.640418307086e-03, -1.214781644759e-03, 2.100000000000e-02
3178, -8.202091535429e-04, -1.241289092481e-03, 2.100000000000e-02
3179, 0.000000000000e+00, -1.250000000000e-03, 2.100000000000e-02
3180, 8.202091535429e-04, -1.241289092481e-03, 2.100000000000e-02
3181, 1.640418307086e-03, -1.214781644759e-03, 2.100000000000e-02
3182, 2.460627460629e-03, -1.169267933367e-03, 2.100000000000e-02
3183, 3.280836614172e-03, -1.102396379610e-03, 2.100000000000e-02
3184, 4.101045767714e-03, -1.009933303628e-03, 2.100000000000e-02
3185, 4.921254921257e-03, -8.838834764832e-04, 2.100000000000e-02
3186, -4.980430453284e-03, -4.419417382416e-04, 2.100000000000e-02
3187, -4.150358711070e-03, -5.049666518142e-04, 2.100000000000e-02
3188, -3.320286968856e-03, -5.511981898051e-04, 2.100000000000e-02
3189, -2.490215226642e-03, -5.846339666834e-04, 2.100000000000e-02
3190, -1.660143484428e-03, -6.073908223797e-04, 2.100000000000e-02
3191, -8.300717422140e-04, -6.206445462403e-04, 2.100000000000e-02
3192, 0.000000000000e+00, -6.250000000000e-04, 2.100000000000e-02
3193, 8.300717422140e-04, -6.206445462403e-04, 2.100000000000e-02
3194, 1.660143484428e-03, -6.073908223797e-04, 2.100000000000e-02
3195, 2.490215226642e-03, -5.846339666834e-04, 2.100000000000e-02
3196, 3.320286968856e-03, -5.511981898051e-04, 2.100000000000e-02
3197, 4.150358711070e-03, -5.049666518142e-04, 2.100000000000e-02
3198, 4.980430453284e-03, -4.419417382416e-04, 2.100000000000e-02
3199, -5.000000000000e-03, 0.000000000000e+00, 2.100000000000e-02
3200, -4.166666666667e-03, 0.000000000000e+00, 2.100000000000e-02
3201, -3.333333333333e-03, 0.000000000000e+00, 2.100000000000e-02
3202, -2.500000000000e-03, 0.000000000000e+00, 2.100000000000e-02
3203, -1.666666666667e-03, 0.000000000000e+00, 2.100000000000e-02
3204, -8.333333333333e-04, 0.000000000000e+00, 2.100000000000e-02
3205, 0.000000000000e+00, 0.000000000000e+00, 2.100000000000e-02
3206, 8.333333333333e-04, 0.000000000000e+00, 2.100000000000e-02
3207, 1.666666666667e-03, 0.000000000000e+00, 2.100000000000e-02
3208, 2.500000000000e-03, 0.000000000000e+00, 2.100000000000e-02
3209, 3.333333333333e-03, 0.000000000000e+00, 2.100000000000e-02
3210, 4.166666666667e-03, 0.000000000000e+00, 2.100000000000e-02
3211, 5.000000000000e-03, 0.000000000000e+00, 2.100000000000e-02
3212, -4.980430453284e-03, 4.419417382416e-04, 2.100000000000e-02
3213, -4.150358711070e-03, 5.049666518142e-04, 2.100000000000e-02
3214, -3.320286968856e-03, 5.511981898051e-04, 2.100000000000e-02
3215, -2.490215226642e-03, 5.846339666834e-04, 2.100000000000e-02
3216, -1.660143484428e-03, 6.073908223797e-04, 2.100000000000e-02
3217, -8.300717422140e-04, 6.206445462403e-04, 2.100000000000e-02
3218, 0.000000000000e+00, 6.250000000000e-04, 2.100000000000e-02
3219, 8.300717422140e-04, 6.206445462403e-04, 2.100000000000e-02
3220, 1.660143484428e-03, 6.073908223797e-04, 2.100000000000e-02
3221, 2.490215226642e-03, 5.846339666834e-04, 2.100000000000e-02
3222, 3.320286968856e-03, 5.511981898051e-04, 2.100000000000e-02
3223, 4.150358711070e-03, 5.049666518142e-04, 2.100000000000e-02
3224, 4.980430453284e-03, 4.419417382416e-04, 2.100000000000e-02
3225, -4.921254921257e-03, 8.838834764832e-04, 2.100000000000e-02
3226, -4.101045767714e-03, 1.009933303628e-03, 2.100000000000e-02
3227, -3.280836614172e-03, 1.102396379610e-03, 2.100000000000e-02
3228, -2.460627460629e-03, 1.169267933367e-03, 2.100000000000e-02
3229, -1.640418307086e-03, 1.214781644759e-03, 2.100000000000e-02
3230, -8.202091535429e-04, 1.241289092481e-03, 2.100000000000e-02
3231, 0.000000000000e+00, 1.250000000000e-03, 2.100000000000e-02
3232, 8.202091535429e-04, 1.241289092481e-03, 2.100000000000e-02
3233, 1.640418307086e-03, 1.214781644759e-03, 2.100000000000e-02
3234, 2.460627460629e-03, 1.169267933367e-03, 2.100000000000e-02
3235, 3.280836614172e-03, 1.102396379610e-03, 2.100000000000e-02
3236, 4.101045767714e-03, 1.009933303628e-03, 2.100000000000e-02
3237, 4.921254921257e-03, 8.838834764832e-04, 2.100000000000e-02
3238, -4.821015193919e-03, 1.325825214725e-03, 2.100000000000e-02
3239, -4.017512661599e-03, 1.514899955443e-03, 2.100000000000e-02
3240, -3.214010129279e-03, 1.653594569415e-03, 2.100000000000e-02
3241, -2.410507596960e-03, 1.753901900050e-03, 2.100000000000e-02
3242, -1.607005064640e-03, 1.822172467139e-03, 2.100000000000e-02
3243, -8.035025323199e-04, 1.861933638721e-03, 2.100000000000e-02
3244, 0.000000000000e+00, 1.875000000000e-03, 2.100000000000e-02
3245, 8.035025323199e-04, 1.861933638721e-03, 2.100000000000e-02
3246, 1.607005064640e-03, 1.822172467139e-03, 2.100000000000e-02
3247, 2.410507596960e-03, 1.753901900050e-03, 2.100000000000e-02
3248, 3.214010129279e-03, 1.653594569415e-03, 2.100000000000e-02
3249, 4.017512661599e-03, 1.514899955443e-03, 2.100000000000e-02
3250, 4.821015193919e-03, 1.325825214725e-03, 2.100000000000e-02
3251, -4.677071733467e-03, 1.767766952966e-03, 2.100000000000e-02
3252, -3.897559777890e-03, 2.019866607257e-03, 2.100000000000e-02
3253, -3.118047822312e-03, 2.204792759220e-03, 2.100000000000e-02
3254, -2.338535866734e-03, 2.338535866734e-03, 2.100000000000e-02
3255, -1.559023911156e-03, 2.429563289519e-03, 2.100000000000e-02
3256, -7.795119555779e-04, 2.482578184961e-03, 2.100000000000e-02
3257, 0.000000000000e+00, 2.500000000000e-03, 2.100000000000e-02
3258, 7.795119555779e-04, 2.482578184961e-03, 2.100000000000e-02
3259, 1.559023911156e-03, 2.429563289519e-03, 2.100000000000e-02
3260, 2.338535866734e-03, 2.338535866734e-03, 2.100000000000e-02
3261, 3.118047822312e-03, 2.204792759220e-03, 2.100000000000e-02
3262, 3.897559777890e-03, 2.019866607257e-03, 2.100000000000e-02
3263, 4.677071733467e-03, 1.767766952966e-03, 2.100000000000e-02
3264, -4.485218779502e-03, 2.209708691208e-03, 2.100000000000e-02
3265, -3.737682316252e-03, 2.524833259071e-03, 2.100000000000e-02
3266, -2.990145853002e-03, 2.755990949026e-03, 2.100000000000e-02
3267, -2.242609389751e-03, 2.923169833417e-03, 2.100000000000e-02
3268, -1.495072926501e-03, 3.036954111899e-03, 2.100000000000e-02
3269, -7.475364632504e-04, 3.103222731201e-03, 2.100000000000e-02
3270, 0.000000000000e+00, 3.125000000000e-03, 2.100000000000e-02
3271, 7.475364632504e-04, 3.103222731201e-03, 2.100000000000e-02
3272, 1.495072926501e-03, 3.036954111899e-03, 2.100000000000e-02
3273, 2.242609389751e-03, 2.923169833417e-03, 2.100000000000e-02
3274, 2.990145853002e-03, 2.755990949026e-03, 2.100000000000e-02
3275, 3.737682316252e-03, 2.524833259071e-03, 2.100000000000e-02
3276, 4.485218779502e-03, 2.209708691208e-03, 2.100000000000e-02
3277, -4.238956239453e-03, 2.651650429450e-03, 2.100000000000e-02
3278, -3.532463532878e-03, 3.029799910885e-03, 2.100000000000e-02
3279, -2.825970826302e-03, 3.307189138831e-03, 2.100000000000e-02
3280, -2.119478119727e-03, 3.507803800101e-03, 2.100000000000e-02
3281, -1.412985413151e-03, 3.644344934278e-03, 2.100000000000e-02
3282, -7.064927065755e-04, 3.723867277442e-03, 2.100000000000e-02
3283, 0.000000000000e+00, 3.750000000000e-03, 2.100000000000e-02
3284, 7.064927065755e-04, 3.723867277442e-03, 2.100000000000e-02
3285, 1.412985413151e-03, 3.644344934278e-03, 2.100000000000e-02
3286, 2.119478119727e-03, 3.507803800101e-03, 2.100000000000e-02
3287, 2.825970826302e-03, 3.307189138831e-03, 2.100000000000e-02
3288, 3.532463532878e-03, 3.029799910885e-03, 2.100000000000e-02
3289, 4.238956239453e-03, 2.651650429450e-03, 2.100000000000e-02
3290, -3.928064090618e-03, 3.093592167691e-03, 2.100000000000e-02
3291, -3.273386742181e-03, 3.534766562699e-03, 2.100000000000e-02
3292, -2.618709393745e-03, 3.858387328636e-03, 2.100000000000e-02
3293, -1.964032045309e-03, 4.092437766784e-03, 2.100000000000e-02
3294, -1.309354696873e-03, 4.251735756658e-03, 2.100000000000e-02
3295, -6.546773484363e-04, 4.344511823682e-03, 2.100000000000e-02
3296, 0.000000000000e+00, 4.375000000000e-03, 2.100000000000e-02
3297, 6.546773484363e-04, 4.344511823682e-03, 2.100000000000e-02
3298, 1.309354696873e-03, 4.251735756658e-03, 2.100000000000e-02
3299, 1.964032045309e-03, 4.092437766784e-03, 2.100000000000e-02
3300, 2.618709393745e-03, 3.858387328636e-03, 2.100000000000e-02
3301, 3.273386742181e-03, 3.534766562699e-03, 2.100000000000e-02
3302, 3.928064090618e-03, 3.093592167691e-03, 2.100000000000e-02
3303, -3.535533905933e-03, 3.535533905933e-03, 2.100000000000e-02
3304, -2.946278254944e-03, 4.039733214514e-03, 2.100000000000e-02
3305, -2.357022603955e-03, 4.409585518441e-03, 2.100000000000e-02
3306, -1.767766952966e-03, 4.677071733467e-03, 2.100000000000e-02
3307, -1.178511301978e-03, 4.859126579038e-03, 2.100000000000e-02
3308, -5.892556509888e-04, 4.965156369922e-03, 2.100000000000e-02
3309, 0.000000000000e+00, 5.000000000000e-03, 2.100000000000e-02
3310, 5.892556509888e-04, 4.965156369922e-03, 2.100000000000e-02
3311, 1.178511301978e-03, 4.859126579038e-03, 2.100000000000e-02
3312, 1.767766952966e-03, 4.677071733467e-03, 2.100000000000e-02
3313, 2.357022603955e-03, 4.409585518441e-03, 2.100000000000e-02
3314, 2.946278254944e-03, 4.039733214514e-03, 2.100000000000e-02
3315, 3.535533905933e-03, 3.535533905933e-03, 2.100000000000e-02
3316, -3.535533905933e-03, -3.535533905933e-03, 2.250000000000e-02
3317, -2.946278254944e-03, -4.039733214514e-03, 2.250000000000e-02
3318, -2.357022603955e-03, -4.409585518441e-03, 2.250000000000e-02
3319, -1.767766952966e-03, -4.677071733467e-03, 2.250000000000e-02
3320, -1.178511301978e-03, -4.859126579038e-03, 2.250000000000e-02
3321, -5.892556509888e-04, -4.965156369922e-03, 2.250000000000e-02
3322, 0.000000000000e+00, -5.000000000000e-03, 2.250000000000e-02
3323, 5.892556509888e-04, -4.965156369922e-03, 2.250000000000e-02
3324, 1.178511301978e-03, -4.859126579038e-03, 2.250000000000e-02
3325, 1.767766952966e-03, -4.677071733467e-03, 2.250000000000e-02
3326, 2.357022603955e-03, -4.409585518441e-03, 2.250000000000e-02
3327, 2.946278254944e-03, -4.039733214514e-03, 2.250000000000e-02
3328, 3.535533905933e-03, -3.535533905933e-03, 2.250000000000e-02
3329, -3.928064090618e-03, -3.093592167691e-03, 2.250000000000e-02
3330, -3.273386742181e-03, -3.534766562699e-03, 2.250000000000e-02
3331, -2.618709393745e-03, -3.858387328636e-03, 2.250000000000e-02
3332, -1.964032045309e-03, -4.092437766784e-03, 2.250000000000e-02
3333, -1.309354696873e-03, -4.251735756658e-03, 2.250000000000e-02
3334, -6.546773484363e-04, -4.344511823682e-03, 2.250000000000e-02
3335, 0.000000000000e+00, -4.375000000000e-03, 2.250000000000e-02
3336, 6.546773484363e-04, -4.344511823682e-03, 2.250000000000e-02
3337, 1.309354696873e-03, -4.251735756658e-03, 2.250000000000e-02
3338, 1.964032045309e-03, -4.092437766784e-03, 2.250000000000e-02
3339, 2.618709393745e-03, -3.858387328636e-03, 2.250000000000e-02
3340, 3.273386742181e-03, -3.534766562699e-03, 2.250000000000e-02
3341, 3.928064090618e-03, -3.093592167691e-03, 2.250000000000e-02
3342, -4.238956239453e-03, -2.651650429450e-03, 2.250000000000e-02
3343, -3.532463532878e-03, -3.029799910885e-03, 2.250000000000e-02
3344, -2.825970826302e-03, -3.307189138831e-03, 2.250000000000e-02
3345, -2.119478119727e-03, -3.507803800101e-03, 2.250000000000e-02
3346, -1.412985413151e-03, -3.644344934278e-03, 2.250000000000e-02
3347, -7.064927065755e-04, -3.723867277442e-03, 2.250000000000e-02
3348, 0.000000000000e+00, -3.750000000000e-03, 2.250000000000e-02
3349, 7.064927065755e-04, -3.723867277442e-03, 2.250000000000e-02
3350, 1.412985413151e-03, -3.644344934278e-03, 2.250000000000e-02
3351, 2.119478119727e-03, -3.507803800101e-03, 2.250000000000e-02
3352, 2.825970826302e-03, -3.307189138831e-03, 2.250000000000e-02
3353, 3.532463532878e-03, -3.029799910885e-03, 2.250000000000e-02
3354, 4.238956239453e-03, -2.651650429450e-03, 2.250000000000e-02
3355, -4.485218779502e-03, -2.209708691208e-03, 2.250000000000e-02
3356, -3.737682316252e-03, -2.524833259071e-03, 2.250000000000e-02
3357, -2.990145853002e-03, -2.755990949026e-03, 2.250000000000e-02
3358, -2.242609389751e-03, -2.923169833417e-03, 2.250000000000e-02
3359, -1.495072926501e-03, -3.036954111899e-03, 2.250000000000e-02
3360, -7.475364632504e-04, -3.103222731201e-03, 2.250000000000e-02
3361, 0.000000000000e+00, -3.125000000000e-03, 2.250000000000e-02
3362, 7.475364632504e-04, -3.103222731201e-03, 2.250000000000e-02
3363, 1.495072926501e-03, -3.036954111899e-03, 2.250000000000e-02
3364, 2.242609389751e-03, -2.923169833417e-03, 2.250000000000e-02
3365, 2.990145853002e-03, -2.755990949026e-03, 2.250000000000e-02
3366, 3.737682316252e-03, -2.524833259071e-03, 2.250000000000e-02
3367, 4.485218779502e-03, -2.209708691208e-03, 2.250000000000e-02
3368, -4.677071733467e-03, -1.767766952966e-03, 2.250000000000e-02
3369, -3.897559777890e-03, -2.019866607257e-03, 2.250000000000e-02
3370, -3.118047822312e-03, -2.204792759220e-03, 2.250000000000e-02
3371, -2.338535866734e-03, -2.338535866734e-03, 2.250000000000e-02
3372, -1.559023911156e-03, -2.429563289519e-03, 2.250000000000e-02
3373, -7.795119555779e-04, -2.482578184961e-03, 2.250000000000e-02
3374, 0.000000000000e+00, -2.500000000000e-03, 2.250000000000e-02
3375, 7.795119555779e-04, -2.482578184961e-03, 2.250000000000e-02
3376, 1.559023911156e-03, -2.429563289519e-03, 2.250000000000e-02
3377, 2.338535866734e-03, -2.338535866734e-03, 2.250000000000e-02
3378, 3.118047822312e-03, -2.204792759220e-03, 2.250000000000e-02
3379, 3.897559777890e-03, -2.019866607257e-03, 2.250000000000e-02
3380, 4.677071733467e-03, -1.767766952966e-03, 2.250000000000e-02
3381, -4.821015193919e-03, -1.325825214725e-03, 2.250000000000e-02
3382, -4.017512661599e-03, -1.514899955443e-03, 2.250000000000e-02
3383, -3.214010129279e-03, -1.653594569415e-03, 2.250000000000e-02
3384, -2.410507596960e-03, -1.753901900050e-03, 2.250000000000e-02
3385, -1.607005064640e-03, -1.822172467139e-03, 2.250000000000e-02
3386, -8.035025323199e-04, -1.861933638721e-03, 2.250000000000e-02
3387, 0.000000000000e+00, -1.875000000000e-03, 2.250000000000e-02
3388, 8.035025323199e-04, -1.861933638721e-03, 2.250000000000e-02
3389, 1.607005064640e-03, -1.822172467139e-03, 2.250000000000e-02
3390, 2.410507596960e-03, -1.753901900050e-03, 2.250000000000e-02
3391, 3.214010129279e-03, -1.653594569415e-03, 2.250000000000e-02
3392, 4.017512661599e-03, -1.514899955443e-03, 2.250000000000e-02
3393, 4.821015193919e-03, -1.325825214725e-03, 2.250000000000e-02
3394, -4.921254921257e-03, -8.838834764832e-04, 2.250000000000e-02
3395, -4.101045767714e-03, -1.009933303628e-03, 2.250000000000e-02
3396, -3.280836614172e-03, -1.102396379610e-03, 2.250000000000e-02
3397, -2.460627460629e-03, -1.169267933367e-03, 2.250000000000e-02
3398, -1.640418307086e-03, -1.214781644759e-03, 2.250000000000e-02
3399, -8.202091535429e-04, -1.241289092481e-03, 2.250000000000e-02
3400, 0.000000000000e+00, -1.250000000000e-03, 2.250000000000e-02
3401, 8.202091535429e-04, -1.241289092481e-03, 2.250000000000e-02
3402, 1.640418307086e-03, -1.214781644759e-03, 2.250000000000e-02
3403, 2.460627460629e-03, -1.169267933367e-03, 2.250000000000e-02
3404, 3.280836614172e-03, -1.102396379610e-03, 2.250000000000e-02
3405, 4.101045767714e-03, -1.009933303628e-03, 2.250000000000e-02
3406, 4.921254921257e-03, -8.838834764832e-04, 2.250000000000e-02
3407, -4.980430453284e-03, -4.419417382416e-04, 2.250000000000e-02
3408, -4.150358711070e-03, -5.049666518142e-04, 2.250000000000e-02
3409, -3.320286968856e-03, -5.511981898051e-04, 2.250000000000e-02
3410, -2.490215226642e-03, -5.846339666834e-04, 2.250000000000e-02
3411, -1.660143484428e-03, -6.073908223797e-04, 2.250000000000e-02
3412, -8.300717422140e-04, -6.206445462403e-04, 2.250000000000e-02
3413, 0.000000000000e+00, -6.250000000000e-04, 2.250000000000e-02
3414, 8.300717422140e-04, -6.206445462403e-04, 2.250000000000e-02
3415, 1.660143484428e-03, -6.073908223797e-04, 2.250000000000e-02
3416, 2.490215226642e-03, -5.846339666834e-04, 2.250000000000e-02
3417, 3.320286968856e-03, -5.511981898051e-04, 2.250000000000e-02
3418, 4.150358711070e-03, -5.049666518142e-04, 2.250000000000e-02
3419, 4.980430453284e-03, -4.419417382416e-04, 2.250000000000e-02
3420, -5.000000000000e-03, 0.000000000000e+00, 2.250000000000e-02
3421, -4.166666666667e-03, 0.000000000000e+00, 2.250000000000e-02
3422, -3.333333333333e-03, 0.000000000000e+00, 2.250000000000e-02
3423, -2.500000000000e-03, 0.000000000000e+00, 2.250000000000e-02
3424, -1.666666666667e-03, 0.000000000000e+00, 2.250000000000e-02
3425, -8.333333333333e-04, 0.000000000000e+00, 2.250000000000e-02
3426, 0.000000000000e+00, 0.000000000000e+00, 2.250000000000e-02
3427, 8.333333333333e-04, 0.000000000000e+00, 2.250000000000e-02
3428, 1.666666666667e-03, 0.000000000000e+00, 2.250000000000e-02
3429, 2.500000000000e-03, 0.000000000000e+00, 2.250000000000e-02
3430, 3.333333333333e-03, 0.000000000000e+00, 2.250000000000e-02
3431, 4.166666666667e-03, 0.000000000000e+00, 2.250000000000e-02
3432, 5.000000000000e-03, 0.000000000000e+00, 2.250000000000e-02
3433, -4.980430453284e-03, 4.419417382416e-04, 2.250000000000e-02
3434, -4.150358711070e-03, 5.049666518142e-04, 2.250000000000e-02
3435, -3.320286968856e-03, 5.511981898051e-04, 2.250000000000e-02
3436, -2.490215226642e-03, 5.846339666834e-04, 2.250000000000e-02
3437, -1.660143484428e-03, 6.073908223797e-04, 2.250000000000e-02
3438, -8.300717422140e-04, 6.206445462403e-04, 2.250000000000e-02
3439, 0.000000000000e+00, 6.250000000000e-04, 2.250000000000e-02
3440, 8.300717422140e-04, 6.206445462403e-04, 2.250000000000e-02
3441, 1.660143484428e-03, 6.073908223797e-04, 2.250000000000e-02
3442, 2.490215226642e-03, 5.846339666834e-04, 2.250000000000e-02
3443, 3.320286968856e-03, 5.511981898051e-04, 2.250000000000e-02
3444, 4.150358711070e-03, 5.049666518142e-04, 2.250000000000e-02
3445, 4.980430453284e-03, 4.419417382416e-04, 2.250000000000e-02
3446, -4.921254921257e-03, 8.838834764832e-04, 2.250000000000e-02
3447, -4.101045767714e-03, 1.009933303628e-03, 2.250000000000e-02
3448, -3.280836614172e-03, 1.102396379610e-03, 2.250000000000e-02
3449, -2.460627460629e-03, 1.169267933367e-03, 2.250000000000e-02
3450, -1.640418307086e-03, 1.214781644759e-03, 2.250000000000e-02
3451, -8.202091535429e-04, 1.241289092481e-03, 2.250000000000e-02
3452, 0.000000000000e+00, 1.250000000000e-03, 2.250000000000e-02
3453, 8.202091535429e-04, 1.241289092481e-03, 2.250000000000e-02
3454, 1.640418307086e-03, 1.214781644759e-03, 2.250000000000e-02
3455, 2.460627460629e-03, 1.169267933367e-03, 2.250000000000e-02
3456, 3.280836614172e-03, 1.102396379610e-03, 2.250000000000e-02
3457, 4.101045767714e-03, 1.009933303628e-03, 2.250000000000e-02
3458, 4.921254921257e-03, 8.838834764832e-04, 2.250000000000e-02
3459, -4.821015193919e-03, 1.325825214725e-03, 2.250000000000e-02
3460, -4.017512661599e-03, 1.514899955443e-03, 2.250000000000e-02
3461, -3.214010129279e-03, 1.653594569415e-03, 2.250000000000e-02
3462, -2.410507596960e-03, 1.753901900050e-03, 2.250000000000e-02
3463, -1.607005064640e-03, 1.822172467139e-03, 2.250000000000e-02
3464, -8.035025323199e-04, 1.861933638721e-03, 2.250000000000e-02
3465, 0.000000000000e+00, 1.875000000000e-03, 2.250000000000e-02
3466, 8.035025323199e-04, 1.861933638721e-03, 2.250000000000e-02
3467, 1.607005064640e-03, 1.822172467139e-03, 2.250000000000e-02
3468, 2.410507596960e-03, 1.753901900050e-03, 2.250000000000e-02
3469, 3.214010129279e-03, 1.653594569415e-03, 2.250000000000e-02
3470, 4.017512661599e-03, 1.514899955443e-03, 2.250000000000e-02
3471, 4.821015193919e-03, 1.325825214725e-03, 2.250000000000e-02
3472, -4.677071733467e-03, 1.767766952966e-03, 2.250000000000e-02
3473, -3.897559777890e-03, 2.019866607257e-03, 2.250000000000e-02
3474, -3.118047822312e-03, 2.204792759220e-03, 2.250000000000e-02
3475, -2.338535866734e-03, 2.338535866734e-03, 2.250000000000e-02
3476, -1.559023911156e-03, 2.429563289519e-03, 2.250000000000e-02
3477, -7.795119555779e-04, 2.482578184961e-03, 2.250000000000e-02
3478, 0.000000000000e+00, 2.500000000000e-03, 2.250000000000e-02
3479, 7.795119555779e-04, 2.482578184961e-03, 2.250000000000e-02
3480, 1.559023911156e-03, 2.429563289519e-03, 2.250000000000e-02
3481, 2.338535866734e-03, 2.338535866734e-03, 2.250000000000e-02
3482, 3.118047822312e-03, 2.204792759220e-03, 2.250000000000e-02
3483, 3.897559777890e-03, 2.019866607257e-03, 2.250000000000e-02
3484, 4.677071733467e-03, 1.767766952966e-03, 2.250000000000e-02
3485, -4.485218779502e-03, 2.209708691208e-03, 2.250000000000e-02
3486, -3.737682316252e-03, 2.524833259071e-03, 2.250000000000e-02
3487, -2.990145853002e-03, 2.755990949026e-03, 2.250000000000e-02
3488, -2.242609389751e-03, 2.923169833417e-03, 2.250000000000e-02
3489, -1.495072926501e-03, 3.036954111899e-03, 2.250000000000e-02
3490, -7.475364632504e-04, 3.103222731201e-03, 2.250000000000e-02
3491, 0.000000000000e+00, 3.125000000000e-03, 2.250000000000e-02
3492, 7.475364632504e-04, 3.103222731201e-03, 2.250000000000e-02
3493, 1.495072926501e-03, 3.036954111899e-03, 2.250000000000e-02
3494, 2.242609389751e-03, 2.923169833417e-03, 2.250000000000e-02
3495, 2.990145853002e-03, 2.755990949026e-03, 2.250000000000e-02
3496, 3.737682316252e-03, 2.524833259071e-03, 2.250000000000e-02
3497, 4.485218779502e-03, 2.209708691208e-03, 2.250000000000e-02
3498, -4.238956239453e-03, 2.651650429450e-03, 2.250000000000e-02
3499, -3.532463532878e-03, 3.029799910885e-03, 2.250000000000e-02
3500, -2.825970826302e-03, 3.307189138831e-03, 2.250000000000e-02
3501, -2.119478119727e-03, 3.507803800101e-03, 2.250000000000e-02
3502, -1.412985413151e-03, 3.644344934278e-03, 2.250000000000e-02
3503, -7.064927065755e-04, 3.723867277442e-03, 2.250000000000e-02
3504, 0.000000000000e+00, 3.750000000000e-03, 2.250000000000e-02
3505, 7.064927065755e-04, 3.723867277442e-03, 2.250000000000e-02
3506, 1.412985413151e-03, 3.644344934278e-03, 2.250000000000e-02
3507, 2.119478119727e-03, 3.507803800101e-03, 2.250000000000e-02
3508, 2.825970826302e-03, 3.307189138831e-03, 2.250000000000e-02
3509, 3.532463532878e-03, 3.029799910885e-03, 2.250000000000e-02
3510, 4.238956239453e-03, 2.651650429450e-03, 2.250000000000e-02
3511, -3.928064090618e-03, 3.093592167691e-03, 2.250000000000e-02
3512, -3.273386742181e-03, 3.534766562699e-03, 2.250000000000e-02
3513, -2.618709393745e-03, 3.858387328636e-03, 2.250000000000e-02
3514, -1.964032045309e-03, 4.092437766784e-03, 2.250000000000e-02
3515, -1.309354696873e-03, 4.251735756658e-03, 2.250000000000e-02
3516, -6.546773484363e-04, 4.344511823682e-03, 2.250000000000e-02
3517, 0.000000000000e+00, 4.375000000000e-03, 2.250000000000e-02
3518, 6.546773484363e-04, 4.344511823682e-03, 2.250000000000e-02
3519, 1.309354696873e-03, 4.251735756658e-03, 2.250000000000e-02
3520, 1.964032045309e-03, 4.092437766784e-03, 2.250000000000e-02
3521, 2.618709393745e-03, 3.858387328636e-03, 2.250000000000e-02
3522, 3.273386742181e-03, 3.534766562699e-03, 2.250000000000e-02
3523, 3.928064090618e-03, 3.093592167691e-03, 2.250000000000e-02
3524, -3.535533905933e-03, 3.535533905933e-03, 2.250000000000e-02
3525, -2.946278254944e-03, 4.039733214514e-03, 2.250000000000e-02
3526, -2.357022603955e-03, 4.409585518441e-03, 2.250000000000e-02
3527, -1.767766952966e-03, 4.677071733467e-03, 2.250000000000e-02
3528, -1.178511301978e-03, 4.859126579038e-03, 2.250000000000e-02
3529, -5.892556509888e-04, 4.965156369922e-03, 2.250000000000e-02
3530, 0.000000000000e+00, 5.000000000000e-03, 2.250000000000e-02
3531, 5.892556509888e-04, 4.965156369922e-03, 2.250000000000e-02
3532, 1.178511301978e-03, 4.859126579038e-03, 2.250000000000e-02
3533, 1.767766952966e-03, 4.677071733467e-03, 2.250000000000e-02
3534, 2.357022603955e-03, 4.409585518441e-03, 2.250000000000e-02
3535, 2.946278254944e-03, 4.039733214514e-03, 2.250000000000e-02
3536, 3.535533905933e-03, 3.535533905933e-03, 2.250000000000e-02
3537, -3.535533905933e-03, -3.535533905933e-03, 2.400000000000e-02
3538, -2.946278254944e-03, -4.039733214514e-03, 2.400000000000e-02
3539, -2.357022603955e-03, -4.409585518441e-03, 2.400000000000e-02
3540, -1.767766952966e-03, -4.677071733467e-03, 2.400000000000e-02
3541, -1.178511301978e-03, -4.859126579038e-03, 2.400000000000e-02
3542, -5.892556509888e-04, -4.965156369922e-03, 2.400000000000e-02
3543, 0.000000000000e+00, -5.000000000000e-03, 2.400000000000e-02
3544, 5.892556509888e-04, -4.965156369922e-03, 2.400000000000e-02
3545, 1.178511301978e-03, -4.859126579038e-03, 2.400000000000e-02
3546, 1.767766952966e-03, -4.677071733467e-03, 2.400000000000e-02
3547, 2.357022603955e-03, -4.409585518441e-03, 2.400000000000e-02
3548, 2.946278254944e-03, -4.039733214514e-03, 2.400000000000e-02
3549, 3.535533905933e-03, -3.535533905933e-03, 2.400000000000e-02
3550, -3.928064090618e-03, -3.093592167691e-03, 2.400000000000e-02
3551, -3.273386742181e-03, -3.534766562699e-03, 2.400000000000e-02
3552, -2.618709393745e-03, -3.858387328636e-03, 2.400000000000e-02
3553, -1.964032045309e-03, -4.092437766784e-03, 2.400000000000e-02
3554, -1.309354696873e-03, -4.251735756658e-03, 2.400000000000e-02
3555, -6.546773484363e-04, -4.344511823682e-03, 2.400000000000e-02
3556, 0.000000000000e+00, -4.375000000000e-03, 2.400000000000e-02
3557, 6.546773484363e-04, -4.344511823682e-03, 2.400000000000e-02
3558, 1.309354696873e-03, -4.251735756658e-03, 2.400000000000e-02
3559, 1.964032045309e-03, -4.092437766784e-03, 2.400000000000e-02
3560, 2.618709393745e-03, -3.858387328636e-03, 2.400000000000e-02
3561, 3.273386742181e-03, -3.534766562699e-03, 2.400000000000e-02
3562, 3.928064090618e-03, -3.093592167691e-03, 2.400000000000e-02
3563, -4.238956239453e-03, -2.651650429450e-03, 2.400000000000e-02
3564, -3.532463532878e-03, -3.029799910885e-03, 2.400000000000e-02
3565, -2.825970826302e-03, -3.307189138831e-03, 2.400000000000e-02
3566, -2.119478119727e-03, -3.507803800101e-03, 2.400000000000e-02
3567, -1.412985413151e-03, -3.644344934278e-03, 2.400000000000e-02
3568, -7.064927065755e-04, -3.723867277442e-03, 2.400000000000e-02
3569, 0.000000000000e+00, -3.750000000000e-03, 2.400000000000e-02
3570, 7.064927065755e-04, -3.723867277442e-03, 2.400000000000e-02
3571, 1.412985413151e-03, -3.644344934278e-03, 2.400000000000e-02
3572, 2.119478119727e-03, -3.507803800101e-03, 2.400000000000e-02
3573, 2.825970826302e-03, -3.307189138831e-03, 2.400000000000e-02
3574, 3.532463532878e-03, -3.029799910885e-03, 2.400000000000e-02
3575, 4.238956239453e-03, -2.651650429450e-03, 2.400000000000e-02
3576, -4.485218779502e-03, -2.209708691208e-03, 2.400000000000e-02
3577, -3.737682316252e-03, -2.524833259071e-03, 2.400000000000e-02
3578, -2.990145853002e-03, -2.755990949026e-03, 2.400000000000e-02
3579, -2.242609389751e-03, -2.923169833417e-03, 2.400000000000e-02
3580, -1.495072926501e-03, -3.036954111899e-03, 2.400000000000e-02
3581, -7.475364632504e-04, -3.103222731201e-03, 2.400000000000e-02
3582, 0.000000000000e+00, -3.125000000000e-03, 2.400000000000e-02
3583, 7.475364632504e-04, -3.103222731201e-03, 2.400000000000e-02
3584, 1.495072926501e-03, -3.036954111899e-03, 2.400000000000e-02
3585, 2.242609389751e-03, -2.923169833417e-03, 2.400000000000e-02
3586, 2.990145853002e-03, -2.755990949026e-03, 2.400000000000e-02
3587, 3.737682316252e-03, -2.524833259071e-03, 2.400000000000e-02
3588, 4.485218779502e-03, -2.209708691208e-03, 2.400000000000e-02
3589, -4.677071733467e-03, -1.767766952966e-03, 2.400000000000e-02
3590, -3.897559777890e-03, -2.019866607257e-03, 2.400000000000e-02
3591, -3.118047822312e-03, -2.204792759220e-03, 2.400000000000e-02
3592, -2.338535866734e-03, -2.338535866734e-03, 2.400000000000e-02
3593, -1.559023911156e-03, -2.429563289519e-03, 2.400000000000e-02
3594, -7.795119555779e-04, -2.482578184961e-03, 2.400000000000e-02
3595, 0.000000000000e+00, -2.500000000000e-03, 2.400000000000e-02
3596, 7.795119555779e-04, -2.482578184961e-03, 2.400000000000e-02
3597, 1.559023911156e-03, -2.429563289519e-03, 2.400000000000e-02
3598, 2.338535866734e-03, -2.338535866734e-03, 2.400000000000e-02
3599, 3.118047822312e-03, -2.204792759220e-03, 2.400000000000e-02
3600, 3.897559777890e-03, -2.019866607257e-03, 2.400000000000e-02
3601, 4.677071733467e-03, -1.767766952966e-03, 2.400000000000e-02
3602, -4.821015193919e-03, -1.325825214725e-03, 2.400000000000e-02
3603, -4.017512661599e-03, -1.514899955443e-03, 2.400000000000e-02
3604, -3.214010129279e-03, -1.653594569415e-03, 2.400000000000e-02
3605, -2.410507596960e-03, -1.753901900050e-03, 2.400000000000e-02
3606, -1.607005064640e-03, -1.822172467139e-03, 2.400000000000e-02
3607, -8.035025323199e-04, -1.861933638721e-03, 2.400000000000e-02
3608, 0.000000000000e+00, -1.875000000000e-03, 2.400000000000e-02
3609, 8.035025323199e-04, -1.861933638721e-03, 2.400000000000e-02
3610, 1.607005064640e-03, -1.822172467139e-03, 2.400000000000e-02
3611, 2.410507596960e-03, -1.753901900050e-03, 2.400000000000e-02
3612, 3.214010129279e-03, -1.653594569415e-03, 2.400000000000e-02
3613, 4.017512661599e-03, -1.514899955443e-03, 2.400000000000e-02
3614, 4.821015193919e-03, -1.325825214725e-03, 2.400000000000e-02
3615, -4.921254921257e-03, -8.838834764832e-04, 2.400000000000e-02
3616, -4.101045767714e-03, -1.009933303628e-03, 2.400000000000e-02
3617, -3.280836614172e-03, -1.102396379610e-03, 2.400000000000e-02
3618, -2.460627460629e-03, -1.169267933367e-03, 2.400000000000e-02
3619, -1.640418307086e-03, -1.214781644759e-03, 2.400000000000e-02
3620, -8.202091535429e-04, -1.241289092481e-03, 2.400000000000e-02
3621, 0.000000000000e+00, -1.250000000000e-03, 2.400000000000e-02
3622, 8.202091535429e-04, -1.241289092481e-03, 2.400000000000e-02
3623, 1.640418307086e-03, -1.214781644759e-03, 2.400000000000e-02
3624, 2.460627460629e-03, -1.169267933367e-03, 2.400000000000e-02
3625, 3.280836614172e-03, -1.102396379610e-03, 2.400000000000e-02
3626, 4.101045767714e-03, -1.009933303628e-03, 2.400000000000e-02
3627, 4.921254921257e-03, -8.838834764832e-04, 2.400000000000e-02
3628, -4.980430453284e-03, -4.419417382416e-04, 2.400000000000e-02
3629, -4.150358711070e-03, -5.049666518142e-04, 2.400000000000e-02
3630, -3.320286968856e-03, -5.511981898051e-04, 2.400000000000e-02
3631, -2.490215226642e-03, -5.846339666834e-04, 2.400000000000e-02
3632, -1.660143484428e-03, -6.073908223797e-04, 2.400000000000e-02
3633, -8.300717422140e-04, -6.206445462403e-04, 2.400000000000e-02
3634, 0.000000000000e+00, -6.250000000000e-04, 2.400000000000e-02
3635, 8.300717422140e-04, -6.206445462403e-04, 2.400000000000e-02
3636, 1.660143484428e-03, -6.073908223797e-04, 2.400000000000e-02
3637, 2.490215226642e-03, -5.846339666834e-04, 2.400000000000e-02
3638, 3.320286968856e-03, -5.511981898051e-04, 2.400000000000e-02
3639, 4.150358711070e-03, -5.049666518142e-04, 2.400000000000e-02
3640, 4.980430453284e-03, -4.419417382416e-04, 2.400000000000e-02
3641, -5.000000000000e-03, 0.000000000000e+00, 2.400000000000e-02
3642, -4.166666666667e-03, 0.000000000000e+00, 2.400000000000e-02
3643, -3.333333333333e-03, 0.000000000000e+00, 2.400000000000e-02
3644, -2.500000000000e-03, 0.000000000000e+00, 2.400000000000e-02
3645, -1.666666666667e-03, 0.000000000000e+00, 2.400000000000e-02
3646, -8.333333333333e-04, 0.000000000000e+00, 2.400000000000e-02
3647, 0.000000000000e+00, 0.000000000000e+00, 2.400000000000e-02
3648, 8.333333333333e-04, 0.000000000000e+00, 2.400000000000e-02
3649, 1.666666666667e-03, 0.000000000000e+00, 2.400000000000e-02
3650, 2.500000000000e-03, 0.000000000000e+00, 2.400000000000e-02
3651, 3.333333333333e-03, 0.000000000000e+00, 2.400000000000e-02
3652, 4.166666666667e-03, 0.000000000000e+00, 2.400000000000e-02
3653, 5.000000000000e-03, 0.000000000000e+00, 2.400000000000e-02
3654, -4.980430453284e-03, 4.419417382416e-04, 2.400000000000e-02
3655, -4.150358711070e-03, 5.049666518142e-04, 2.400000000000e-02
3656, -3.320286968856e-03, 5.511981898051e-04, 2.400000000000e-02
3657, -2.490215226642e-03, 5.846339666834e-04, 2.400000000000e-02
3658, -1.660143484428e-03, 6.073908223797e-04, 2.400000000000e-02
3659, -8.300717422140e-04, 6.206445462403e-04, 2.400000000000e-02
3660, 0.000000000000e+00, 6.250000000000e-04, 2.400000000000e-02
3661, 8.300717422140e-04, 6.206445462403e-04, 2.400000000000e-02
3662, 1.660143484428e-03, 6.073908223797e-04, 2.400000000000e-02
3663, 2.490215226642e-03, 5.846339666834e-04, 2.400000000000e-02
3664, 3.320286968856e-03, 5.511981898051e-04, 2.400000000000e-02
3665, 4.150358711070e-03, 5.049666518142e-04, 2.400000000000e-02
3666, 4.980430453284e-03, 4.419417382416e-04, 2.400000000000e-02
3667, -4.921254921257e-03, 8.838834764832e-04, 2.400000000000e-02
3668, -4.101045767714e-03, 1.009933303628e-03, 2.400000000000e-02
3669, -3.280836614172e-03, 1.102396379610e-03, 2.400000000000e-02
3670, -2.460627460629e-03, 1.169267933367e-03, 2.400000000000e-02
3671, -1.640418307086e-03, 1.214781644759e-03, 2.400000000000e-02
3672, -8.202091535429e-04, 1.241289092481e-03, 2.400000000000e-02
3673, 0.000000000000e+00, 1.250000000000e-03, 2.400000000000e-02
3674, 8.202091535429e-04, 1.241289092481e-03, 2.400000000000e-02
3675, 1.640418307086e-03, 1.214781644759e-03, 2.400000000000e-02
3676, 2.460627460629e-03, 1.169267933367e-03, 2.400000000000e-02
3677, 3.280836614172e-03, 1.102396379610e-03, 2.400000000000e-02
3678, 4.101045767714e-03, 1.009933303628e-03, 2.400000000000e-02
3679, 4.921254921257e-03, 8.838834764832e-04, 2.400000000000e-02
3680, -4.821015193919e-03, 1.325825214725e-03, 2.400000000000e-02
3681, -4.017512661599e-03, 1.514899955443e-03, 2.400000000000e-02
3682, -3.214010129279e-03, 1.653594569415e-03, 2.400000000000e-02
3683, -2.410507596960e-03, 1.753901900050e-03, 2.400000000000e-02
3684, -1.607005064640e-03, 1.822172467139e-03, 2.400000000000e-02
3685, -8.035025323199e-04, 1.861933638721e-03, 2.400000000000e-02
3686, 0.000000000000e+00, 1.875000000000e-03, 2.400000000000e-02
3687, 8.035025323199e-04, 1.861933638721e-03, 2.400000000000e-02
3688, 1.607005064640e-03, 1.822172467139e-03, 2.400000000000e-02
3689, 2.410507596960e-03, 1.753901900050e-03, 2.400000000000e-02
3690, 3.214010129279e-03, 1.653594569415e-03, 2.400000000000e-02
3691, 4.017512661599e-03, 1.514899955443e-03, 2.400000000000e-02
3692, 4.821015193919e-03, 1.325825214725e-03, 2.400000000000e-02
3693, -4.677071733467e-03, 1.767766952966e-03, 2.400000000000e-02
3694, -3.897559777890e-03, 2.019866607257e-03, 2.400000000000e-02
3695, -3.118047822312e-03, 2.204792759220e-03, 2.400000000000e-02
3696, -2.338535866734e-03, 2.338535866734e-03, 2.400000000000e-02
3697, -1.559023911156e-03, 2.429563289519e-03, 2.400000000000e-02
3698, -7.795119555779e-04, 2.482578184961e-03, 2.400000000000e-02
3699, 0.000000000000e+00, 2.500000000000e-03, 2.400000000000e-02
3700, 7.795119555779e-04, 2.482578184961e-03, 2.400000000000e-02
3701, 1.559023911156e-03, 2.429563289519e-03, 2.400000000000e-02
3702, 2.338535866734e-03, 2.338535866734e-03, 2.400000000000e-02
3703, 3.118047822312e-03, 2.204792759220e-03, 2.400000000000e-02
3704, 3.897559777890e-03, 2.019866607257e-03, 2.400000000000e-02
3705, 4.677071733467e-03, 1.767766952966e-03, 2.400000000000e-02
3706, -4.485218779502e-03, 2.209708691208e-03, 2.400000000000e-02
3707, -3.737682316252e-03, 2.524833259071e-03, 2.400000000000e-02
3708, -2.990145853002e-03, 2.755990949026e-03, 2.400000000000e-02
3709, -2.242609389751e-03, 2.923169833417e-03, 2.400000000000e-02
3710, -1.495072926501e-03, 3.036954111899e-03, 2.400000000000e-02
3711, -7.475364632504e-04, 3.103222731201e-03, 2.400000000000e-02
3712, 0.000000000000e+00, 3.125000000000e-03, 2.400000000000e-02
3713, 7.475364632504e-04, 3.103222731201e-03, 2.400000000000e-02
3714, 1.495072926501e-03, 3.036954111899e-03, 2.400000000000e-02
3715, 2.242609389751e-03, 2.923169833417e-03, 2.400000000000e-02
3716, 2.990145853002e-03, 2.755990949026e-03, 2.400000000000e-02
3717, 3.737682316252e-03, 2.524833259071e-03, 2.400000000000e-02
3718, 4.485218779502e-03, 2.209708691208e-03, 2.400000000000e-02
3719, -4.238956239453e-03, 2.651650429450e-03, 2.400000000000e-02
3720, -3.532463532878e-03, 3.029799910885e-03, 2.400000000000e-02
3721, -2.825970826302e-03, 3.307189138831e-03, 2.400000000000e-02
3722, -2.119478119727e-03, 3.507803800101e-03, 2.400000000000e-02
3723, -1.412985413151e-03, 3.644344934278e-03, 2.400000000000e-02
3724, -7.064927065755e-04, 3.723867277442e-03, 2.400000000000e-02
3725, 0.000000000000e+00, 3.750000000000e-03, 2.400000000000e-02
3726, 7.064927065755e-04, 3.723867277442e-03, 2.400000000000e-02
3727, 1.412985413151e-03, 3.644344934278e-03, 2.400000000000e-02
3728, 2.119478119727e-03, 3.507803800101e-03, 2.400000000000e-02
3729, 2.825970826302e-03, 3.307189138831e-03, 2.400000000000e-02
3730, 3.532463532878e-03, 3.029799910885e-03, 2.400000000000e-02
3731, 4.238956239453e-03, 2.651650429450e-03, 2.400000000000e-02
3732, -3.928064090618e-03, 3.093592167691e-03, 2.400000000000e-02
3733, -3.273386742181e-03, 3.534766562699e-03, 2.400000000000e-02
3734, -2.618709393745e-03, 3.858387328636e-03, 2.400000000000e-02
3735, -1.964032045309e-03, 4.092437766784e-03, 2.400000000000e-02
3736, -1.309354696873e-03, 4.251735756658e-03, 2.400000000000e-02
3737, -6.546773484363e-04, 4.344511823682e-03, 2.400000000000e-02
3738, 0.000000000000e+00, 4.375000000000e-03, 2.400000000000e-02
3739, 6.546773484363e-04, 4.344511823682e-03, 2.400000000000e-02
3740, 1.309354696873e-03, 4.251735756658e-03, 2.400000000000e-02
3741, 1.964032045309e-03, 4.092437766784e-03, 2.400000000000e-02
3742, 2.618709393745e-03, 3.858387328636e-03, 2.400000000000e-02
3743, 3.273386742181e-03, 3.534766562699e-03, 2.400000000000e-02
3744, 3.928064090618e-03, 3.093592167691e-03, 2.400000000000e-02
3745, -3.535533905933e-03, 3.535533905933e-03, 2.400000000000e-02
3746, -2.946278254944e-03, 4.039733214514e-03, 2.400000000000e-02
3747, -2.357022603955e-03, 4.409585518441e-03, 2.400000000000e-02
3748, -1.767766952966e-03, 4.677071733467e-03, 2.400000000000e-02
3749, -1.178511301978e-03, 4.859126579038e-03, 2.400000000000e-02
3750, -5.892556509888e-04, 4.965156369922e-03, 2.400000000000e-02
3751, 0.000000000000e+00, 5.000000000000e-03, 2.400000000000e-02
3752, 5.892556509888e-04, 4.965156369922e-03, 2.400000000000e-02
3753, 1.178511301978e-03, 4.859126579038e-03, 2.400000000000e-02
3754, 1.767766952966e-03, 4.677071733467e-03, 2.400000000000e-02
3755, 2.357022603955e-03, 4.409585518441e-03, 2.400000000000e-02
3756, 2.946278254944e-03, 4.039733214514e-03, 2.400000000000e-02
3757, 3.535533905933e-03, 3.535533905933e-03, 2.400000000000e-02
3758, -3.535533905933e-03, -3.535533905933e-03, 2.550000000000e-02
3759, -2.946278254944e-03, -4.039733214514e-03, 2.550000000000e-02
3760, -2.357022603955e-03, -4.409585518441e-03, 2.550000000000e-02
3761, -1.767766952966e-03, -4.677071733467e-03, 2.550000000000e-02
3762, -1.178511301978e-03, -4.859126579038e-03, 2.550000000000e-02
3763, -5.892556509888e-04, -4.965156369922e-03, 2.550000000000e-02
3764, 0.000000000000e+00, -5.000000000000e-03, 2.550000000000e-02
3765, 5.892556509888e-04, -4.965156369922e-03, 2.550000000000e-02
3766, 1.178511301978e-03, -4.859126579038e-03, 2.550000000000e-02
3767, 1.767766952966e-03, -4.677071733467e-03, 2.550000000000e-02
3768, 2.357022603955e-03, -4.409585518441e-03, 2.550000000000e-02
3769, 2.946278254944e-03, -4.039733214514e-03, 2.550000000000e-02
3770, 3.535533905933e-03, -3.535533905933e-03, 2.550000000000e-02
3771, -3.928064090618e-03, -3.093592167691e-03, 2.550000000000e-02
3772, -3.273386742181e-03, -3.534766562699e-03, 2.550000000000e-02
3773, -2.618709393745e-03, -3.858387328636e-03, 2.550000000000e-02
3774, -1.964032045309e-03, -4.092437766784e-03, 2.550000000000e-02
3775, -1.309354696873e-03, -4.251735756658e-03, 2.550000000000e-02
3776, -6.546773484363e-04, -4.344511823682e-03, 2.550000000000e-02
3777, 0.000000000000e+00, -4.375000000000e-03, 2.550000000000e-02
3778, 6.546773484363e-04, -4.344511823682e-03, 2.550000000000e-02
3779, 1.309354696873e-03, -4.251735756658e-03, 2.550000000000e-02
3780, 1.964032045309e-03, -4.092437766784e-03, 2.550000000000e-02
3781, 2.618709393745e-03, -3.858387328636e-03, 2.550000000000e-02
3782, 3.273386742181e-03, -3.534766562699e-03, 2.550000000000e-02
3783, 3.928064090618e-03, -3.093592167691e-03, 2.550000000000e-02
3784, -4.238956239453e-03, -2.651650429450e-03, 2.550000000000e-02
3785, -3.532463532878e-03, -3.029799910885e-03, 2.550000000000e-02
3786, -2.825970826302e-03, -3.307189138831e-03, 2.550000000000e-02
3787, -2.119478119727e-03, -3.507803800101e-03, 2.550000000000e-02
3788, -1.412985413151e-03, -3.644344934278e-03, 2.550000000000e-02
3789, -7.064927065755e-04, -3.723867277442e-03, 2.550000000000e-02
3790, 0.000000000000e+00, -3.750000000000e-03, 2.550000000000e-02
3791, 7.064927065755e-04, -3.723867277442e-03, 2.550000000000e-02
3792, 1.412985413151e-03, -3.644344934278e-03, 2.550000000000e-02
3793, 2.119478119727e-03, -3.507803800101e-03, 2.550000000000e-02
3794, 2.825970826302e-03, -3.307189138831e-03, 2.550000000000e-02
3795, 3.532463532878e-03, -3.029799910885e-03, 2.550000000000e-02
3796, 4.238956239453e-03, -2.651650429450e-03, 2.550000000000e-02
3797, -4.485218779502e-03, -2.209708691208e-03, 2.550000000000e-02
3798, -3.737682316252e-03, -2.524833259071e-03, 2.550000000000e-02
3799, -2.990145853002e-03, -2.755990949026e-03, 2.550000000000e-02
3800, -2.242609389751e-03, -2.923169833417e-03, 2.550000000000e-02
3801, -1.495072926501e-03, -3.036954111899e-03, 2.550000000000e-02
3802, -7.475364632504e-04, -3.103222731201e-03, 2.550000000000e-02
3803, 0.000000000000e+00, -3.125000000000e-03, 2.550000000000e-02
3804, 7.475364632504e-04, -3.103222731201e-03, 2.550000000000e-02
3805, 1.495072926501e-03, -3.036954111899e-03, 2.550000000000e-02
3806, 2.242609389751e-03, -2.923169833417e-03, 2.550000000000e-02
3807, 2.990145853002e-03, -2.755990949026e-03, 2.550000000000e-02
3808, 3.737682316252e-03, -2.524833259071e-03, 2.550000000000e-02
3809, 4.485218779502e-03, -2.209708691208e-03, 2.550000000000e-02
3810, -4.677071733467e-03, -1.767766952966e-03, 2.550000000000e-02
3811, -3.897559777890e-03, -2.019866607257e-03, 2.550000000000e-02
3812, -3.118047822312e-03, -2.204792759220e-03, 2.550000000000e-02
3813, -2.338535866734e-03, -2.338535866734e-03, 2.550000000000e-02
3814, -1.559023911156e-03, -2.429563289519e-03, 2.550000000000e-02
3815, -7.795119555779e-04, -2.482578184961e-03, 2.550000000000e-02
3816, 0.000000000000e+00, -2.500000000000e-03, 2.550000000000e-02
3817, 7.795119555779e-04, -2.482578184961e-03, 2.550000000000e-02
3818, 1.559023911156e-03, -2.429563289519e-03, 2.550000000000e-02
3819, 2.338535866734e-03, -2.338535866734e-03, 2.550000000000e-02
3820, 3.118047822312e-03, -2.204792759220e-03, 2.550000000000e-02
3821, 3.897559777890e-03, -2.019866607257e-03, 2.550000000000e-02
3822, 4.677071733467e-03, -1.767766952966e-03, 2.550000000000e-02
3823, -4.821015193919e-03, -1.325825214725e-03, 2.550000000000e-02
3824, -4.017512661599e-03, -1.514899955443e-03, 2.550000000000e-02
3825, -3.214010129279e-03, -1.653594569415e-03, 2.550000000000e-02
3826, -2.410507596960e-03, -1.753901900050e-03, 2.550000000000e-02
3827, -1.607005064640e-03, -1.822172467139e-03, 2.550000000000e-02
3828, -8.035025323199e-04, -1.861933638721e-03, 2.550000000000e-02
3829, 0.000000000000e+00, -1.875000000000e-03, 2.550000000000e-02
3830, 8.035025323199e-04, -1.861933638721e-03, 2.550000000000e-02
3831, 1.607005064640e-03, -1.822172467139e-03, 2.550000000000e-02
3832, 2.410507596960e-03, -1.753901900050e-03, 2.550000000000e-02
3833, 3.214010129279e-03, -1.653594569415e-03, 2.550000000000e-02
3834, 4.017512661599e-03, -1.514899955443e-03, 2.550000000000e-02
3835, 4.821015193919e-03, -1.325825214725e-03, 2.550000000000e-02
3836, -4.921254921257e-03, -8.838834764832e-04, 2.550000000000e-02
3837, -4.101045767714e-03, -1.009933303628e-03, 2.550000000000e-02
3838, -3.280836614172e-03, -1.102396379610e-03, 2.550000000000e-02
3839, -2.460627460629e-03, -1.169267933367e-03, 2.550000000000e-02
3840, -1.640418307086e-03, -1.214781644759e-03, 2.550000000000e-02
3841, -8.202091535429e-04, -1.241289092481e-03, 2.550000000000e-02
3842, 0.000000000000e+00, -1.250000000000e-03, 2.550000000000e-02
3843, 8.202091535429e-04, -1.241289092481e-03, 2.550000000000e-02
3844, 1.640418307086e-03, -1.214781644759e-03, 2.550000000000e-02
3845, 2.460627460629e-03, -1.169267933367e-03, 2.550000000000e-02
3846, 3.280836614172e-03, -1.102396379610e-03, 2.550000000000e-02
3847, 4.101045767714e-03, -1.009933303628e-03, 2.550000000000e-02
3848, 4.921254921257e-03, -8.838834764832e-04, 2.550000000000e-02
3849, -4.980430453284e-03, -4.419417382416e-04, 2.550000000000e-02
3850, -4.150358711070e-03, -5.049666518142e-04, 2.550000000000e-02
3851, -3.320286968856e-03, -5.511981898051e-04, 2.550000000000e-02
3852, -2.490215226642e-03, -5.846339666834e-04, 2.550000000000e-02
3853, -1.660143484428e-03, -6.073908223797e-04, 2.550000000000e-02
3854, -8.300717422140e-04, -6.206445462403e-04, 2.550000000000e-02
3855, 0.000000000000e+00, -6.250000000000e-04, 2.550000000000e-02
3856, 8.300717422140e-04, -6.206445462403e-04, 2.550000000000e-02
3857, 1.660143484428e-03, -6.073908223797e-04, 2.550000000000e-02
3858, 2.490215226642e-03, -5.846339666834e-04, 2.550000000000e-02
3859, 3.320286968856e-03, -5.511981898051e-04, 2.550000000000e-02
3860, 4.150358711070e-03, -5.049666518142e-04, 2.550000000000e-02
3861, 4.980430453284e-03, -4.419417382416e-04, 2.550000000000e-02
3862, -5.000000000000e-03, 0.000000000000e+00, 2.550000000000e-02
3863, -4.166666666667e-03, 0.000000000000e+00, 2.550000000000e-02
3864, -3.333333333333e-03, 0.000000000000e+00, 2.550000000000e-02
3865, -2.500000000000e-03, 0.000000000000e+00, 2.550000000000e-02
3866, -1.666666666667e-03, 0.000000000000e+00, 2.550000000000e-02
3867, -8.333333333333e-04, 0.000000000000e+00, 2.550000000000e-02
3868, 0.000000000000e+00, 0.000000000000e+00, 2.550000000000e-02
3869, 8.333333333333e-04, 0.000000000000e+00, 2.550000000000e-02
3870, 1.666666666667e-03, 0.000000000000e+00, 2.550000000000e-02
3871, 2.500000000000e-03, 0.000000000000e+00, 2.550000000000e-02
3872, 3.333333333333e-03, 0.000000000000e+00, 2.550000000000e-02
3873, 4.166666666667e-03, 0.000000000000e+00, 2.550000000000e-02
3874, 5.000000000000e-03, 0.000000000000e+00, 2.550000000000e-02
3875, -4.980430453284e-03, 4.419417382416e-04, 2.550000000000e-02
3876, -4.150358711070e-03, 5.049666518142e-04, 2.550000000000e-02
3877, -3.320286968856e-03, 5.511981898051e-04, 2.550000000000e-02
3878, -2.490215226642e-03, 5.846339666834e-04, 2.550000000000e-02
3879, -1.660143484428e-03, 6.073908223797e-04, 2.550000000000e-02
3880, -8.300717422140e-04, 6.206445462403e-04, 2.550000000000e-02
3881, 0.000000000000e+00, 6.250000000000e-04, 2.550000000000e-02
3882, 8.300717422140e-04, 6.206445462403e-04, 2.550000000000e-02
3883, 1.660143484428e-03, 6.073908223797e-04, 2.550000000000e-02
3884, 2.490215226642e-03, 5.846339666834e-04, 2.550000000000e-02
3885, 3.320286968856e-03, 5.511981898051e-04, 2.550000000000e-02
3886, 4.150358711070e-03, 5.049666518142e-04, 2.550000000000e-02
3887, 4.980430453284e-03, 4.419417382416e-04, 2.550000000000e-02
3888, -4.921254921257e-03, 8.838834764832e-04, 2.550000000000e-02
3889, -4.101045767714e-03, 1.009933303628e-03, 2.550000000000e-02
3890, -3.280836614172e-03, 1.102396379610e-03, 2.550000000000e-02
3891, -2.460627460629e-03, 1.169267933367e-03, 2.550000000000e-02
3892, -1.640418307086e-03, 1.214781644759e-03, 2.550000000000e-02
3893, -8.202091535429e-04, 1.241289092481e-03, 2.550000000000e-02
3894, 0.000000000000e+00, 1.250000000000e-03, 2.550000000000e-02
3895, 8.202091535429e-04, 1.241289092481e-03, 2.550000000000e-02
3896, 1.640418307086e-03, 1.214781644759e-03, 2.550000000000e-02
3897, 2.460627460629e-03, 1.169267933367e-03, 2.550000000000e-02
3898, 3.280836614172e-03, 1.102396379610e-03, 2.550000000000e-02
3899, 4.101045767714e-03, 1.009933303628e-03, 2.550000000000e-02
3900, 4.921254921257e-03, 8.838834764832e-04, 2.550000000000e-02
3901, -4.821015193919e-03, 1.325825214725e-03, 2.550000000000e-02
3902, -4.017512661599e-03, 1.514899955443e-03, 2.550000000000e-02
3903, -3.214010129279e-03, 1.653594569415e-03, 2.550000000000e-02
3904, -2.410507596960e-03, 1.753901900050e-03, 2.550000000000e-02
3905, -1.607005064640e-03, 1.822172467139e-03, 2.550000000000e-02
3906, -8.035025323199e-04, 1.861933638721e-03, 2.550000000000e-02
3907, 0.000000000000e+00, 1.875000000000e-03, 2.550000000000e-02
3908, 8.035025323199e-04, 1.861933638721e-03, 2.550000000000e-02
3909, 1.607005064640e-03, 1.822172467139e-03, 2.550000000000e-02
3910, 2.410507596960e-03, 1.753901900050e-03, 2.550000000000e-02
3911, 3.214010129279e-03, 1.653594569415e-03, 2.550000000000e-02
3912, 4.017512661599e-03, 1.514899955443e-03, 2.550000000000e-02
3913, 4.821015193919e-03, 1.325825214725e-03, 2.550000000000e-02
3914, -4.677071733467e-03, 1.767766952966e-03, 2.550000000000e-02
3915, -3.897559777890e-03, 2.019866607257e-03, 2.550000000000e-02
3916, -3.118047822312e-03, 2.204792759220e-03, 2.550000000000e-02
3917, -2.338535866734e-03, 2.338535866734e-03, 2.550000000000e-02
3918, -1.559023911156e-03, 2.429563289519e-03, 2.550000000000e-02
3919, -7.795119555779e-04, 2.482578184961e-03, 2.550000000000e-02
3920, 0.000000000000e+00, 2.500000000000e-03, 2.550000000000e-02
3921, 7.795119555779e-04, 2.482578184961e-03, 2.550000000000e-02
3922, 1.559023911156e-03, 2.429563289519e-03, 2.550000000000e-02
3923, 2.338535866734e-03, 2.338535866734e-03, 2.550000000000e-02
3924, 3.118047822312e-03, 2.204792759220e-03, 2.550000000000e-02
3925, 3.897559777890e-03, 2.019866607257e-03, 2.550000000000e-02
3926, 4.677071733467e-03, 1.767766952966e-03, 2.550000000000e-02
3927, -4.485218779502e-03, 2.209708691208e-03, 2.550000000000e-02
3928, -3.737682316252e-03, 2.524833259071e-03, 2.550000000000e-02
3929, -2.990145853002e-03, 2.755990949026e-03, 2.550000000000e-02
3930, -2.242609389751e-03, 2.923169833417e-03, 2.550000000000e-02
3931, -1.495072926501e-03, 3.036954111899e-03, 2.550000000000e-02
3932, -7.475364632504e-04, 3.103222731201e-03, 2.550000000000e-02
3933, 0.000000000000e+00, 3.125000000000e-03, 2.550000000000e-02
3934, 7.475364632504e-04, 3.103222731201e-03, 2.550000000000e-02
3935, 1.495072926501e-03, 3.036954111899e-03, 2.550000000000e-02
3936, 2.242609389751e-03, 2.923169833417e-03, 2.550000000000e-02
3937, 2.990145853002e-03, 2.755990949026e-03, 2.550000000000e-02
3938, 3.737682316252e-03, 2.524833259071e-03, 2.550000000000e-02
3939, 4.485218779502e-03, 2.209708691208e-03, 2.550000000000e-02
3940, -4.238956239453e-03, 2.651650429450e-03, 2.550000000000e-02
3941, -3.532463532878e-03, 3.029799910885e-03, 2.550000000000e-02
3942, -2.825970826302e-03, 3.307189138831e-03, 2.550000000000e-02
3943, -2.119478119727e-03, 3.507803800101e-03, 2.550000000000e-02
3944, -1.412985413151e-03, 3.644344934278e-03, 2.550000000000e-02
3945, -7.064927065755e-04, 3.723867277442e-03, 2.550000000000e-02
3946, 0.000000000000e+00, 3.750000000000e-03, 2.550000000000e-02
3947, 7.064927065755e-04, 3.723867277442e-03, 2.550000000000e-02
3948, 1.412985413151e-03, 3.644344934278e-03, 2.550000000000e-02
3949, 2.119478119727e-03, 3.507803800101e-03, 2.550000000000e-02
3950, 2.825970826302e-03, 3.307189138831e-03, 2.550000000000e-02
3951, 3.532463532878e-03, 3.029799910885e-03, 2.550000000000e-02
3952, 4.238956239453e-03, 2.651650429450e-03, 2.550000000000e-02
3953, -3.928064090618e-03, 3.093592167691e-03, 2.550000000000e-02
3954, -3.273386742181e-03, 3.534766562699e-03, 2.550000000000e-02
3955, -2.618709393745e-03, 3.858387328636e-03, 2.550000000000e-02
3956, -1.964032045309e-03, 4.092437766784e-03, 2.550000000000e-02
3957, -1.309354696873e-03, 4.251735756658e-03, 2.550000000000e-02
3958, -6.546773484363e-04, 4.344511823682e-03, 2.550000000000e-02
3959, 0.000000000000e+00, 4.375000000000e-03, 2.550000000000e-02
3960, 6.546773484363e-04, 4.344511823682e-03, 2.550000000000e-02
3961, 1.309354696873e-03, 4.251735756658e-03, 2.550000000000e-02
3962, 1.964032045309e-03, 4.092437766784e-03, 2.550000000000e-02
3963, 2.618709393745e-03, 3.858387328636e-03, 2.550000000000e-02
3964, 3.273386742181e-03, 3.534766562699e-03, 2.550000000000e-02
3965, 3.928064090618e-03, 3.093592167691e-03, 2.550000000000e-02
3966, -3.535533905933e-03, 3.535533905933e-03, 2.550000000000e-02
3967, -2.946278254944e-03, 4.039733214514e-03, 2.550000000000e-02
3968, -2.357022603955e-03, 4.409585518441e-03, 2.550000000000e-02
3969, -1.767766952966e-03, 4.677071733467e-03, 2.550000000000e-02
3970, -1.178511301978e-03, 4.859126579038e-03, 2.550000000000e-02
3971, -5.892556509888e-04, 4.965156369922e-03, 2.550000000000e-02
3972, 0.000000000000e+00, 5.000000000000e-03, 2.550000000000e-02
3973, 5.892556509888e-04, 4.965156369922e-03, 2.550000000000e-02
3974, 1.178511301978e-03, 4.859126579038e-03, 2.550000000000e-02
3975, 1.767766952966e-03, 4.677071733467e-03, 2.550000000000e-02
3976, 2.357022603955e-03, 4.409585518441e-03, 2.550000000000e-02
3977, 2.946278254944e-03, 4.039733214514e-03, 2.550000000000e-02
3978, 3.535533905933e-03, 3.535533905933e-03, 2.550000000000e-02
3979, -3.535533905933e-03, -3.535533905933e-03, 2.700000000000e-02
3980, -2.946278254944e-03, -4.039733214514e-03, 2.700000000000e-02
3981, -2.357022603955e-03, -4.409585518441e-03, 2.700000000000e-02
3982, -1.767766952966e-03, -4.677071733467e-03, 2.700000000000e-02
3983, -1.178511301978e-03, -4.859126579038e-03, 2.700000000000e-02
3984, -5.892556509888e-04, -4.965156369922e-03, 2.700000000000e-02
3985, 0.000000000000e+00, -5.000000000000e-03, 2.700000000000e-02
3986, 5.892556509888e-04, -4.965156369922e-03, 2.700000000000e-02
3987, 1.178511301978e-03, -4.859126579038e-03, 2.700000000000e-02
3988, 1.767766952966e-03, -4.677071733467e-03, 2.700000000000e-02
3989, 2.357022603955e-03, -4.409585518441e-03, 2.700000000000e-02
3990, 2.946278254944e-03, -4.039733214514e-03, 2.700000000000e-02
3991, 3.535533905933e-03, -3.535533905933e-03, 2.700000000000e-02
3992, -3.928064090618e-03, -3.093592167691e-03, 2.700000000000e-02
3993, -3.273386742181e-03, -3.534766562699e-03, 2.700000000000e-02
3994, -2.618709393745e-03, -3.858387328636e-03, 2.700000000000e-02
3995, -1.964032045309e-03, -4.092437766784e-03, 2.700000000000e-02
3996, -1.309354696873e-03, -4.251735756658e-03, 2.700000000000e-02
3997, -6.546773484363e-04, -4.344511823682e-03, 2.700000000000e-02
3998, 0.000000000000e+00, -4.375000000000e-03, 2.700000000000e-02
3999, 6.546773484363e-04, -4.344511823682e-03, 2.700000000000e-02
4000, 1.309354696873e-03, -4.251735756658e-03, 2.700000000000e-02
4001, 1.964032045309e-03, -4.092437766784e-03, 2.700000000000e-02
4002, 2.618709393745e-03, -3.858387328636e-03, 2.700000000000e-02
4003, 3.273386742181e-03, -3.534766562699e-03, 2.700000000000e-02
4004, 3.928064090618e-03, -3.093592167691e-03, 2.700000000000e-02
4005, -4.238956239453e-03, -2.651650429450e-03, 2.700000000000e-02
4006, -3.532463532878e-03, -3.029799910885e-03, 2.700000000000e-02
4007, -2.825970826302e-03, -3.307189138831e-03, 2.700000000000e-02
4008, -2.119478119727e-03, -3.507803800101e-03, 2.700000000000e-02
4009, -1.412985413151e-03, -3.644344934278e-03, 2.700000000000e-02
4010, -7.064927065755e-04, -3.723867277442e-03, 2.700000000000e-02
4011, 0.000000000000e+00, -3.750000000000e-03, 2.700000000000e-02
4012, 7.064927065755e-04, -3.723867277442e-03, 2.700000000000e-02
4013, 1.412985413151e-03, -3.644344934278e-03, 2.700000000000e-02
4014, 2.119478119727e-03, -3.507803800101e-03, 2.700000000000e-02
4015, 2.825970826302e-03, -3.307189138831e-03, 2.700000000000e-02
4016, 3.532463532878e-03, -3.029799910885e-03, 2.700000000000e-02
4017, 4.238956239453e-03, -2.651650429450e-03, 2.700000000000e-02
4018, -4.485218779502e-03, -2.209708691208e-03, 2.700000000000e-02
4019, -3.737682316252e-03, -2.524833259071e-03, 2.700000000000e-02
4020, -2.990145853002e-03, -2.755990949026e-03, 2.700000000000e-02
4021, -2.242609389751e-03, -2.923169833417e-03, 2.700000000000e-02
4022, -1.495072926501e-03, -3.036954111899e-03, 2.700000000000e-02
4023, -7.475364632504e-04, -3.103222731201e-03, 2.700000000000e-02
4024, 0.000000000000e+00, -3.125000000000e-03, 2.700000000000e-02
4025, 7.475364632504e-04, -3.103222731201e-03, 2.700000000000e-02
4026, 1.495072926501e-03, -3.036954111899e-03, 2.700000000000e-02
4027, 2.242609389751e-03, -2.923169833417e-03, 2.700000000000e-02
4028, 2.990145853002e-03, -2.755990949026e-03, 2.700000000000e-02
4029, 3.737682316252e-03, -2.524833259071e-03, 2.700000000000e-02
4030, 4.485218779502e-03, -2.209708691208e-03, 2.700000000000e-02
4031, -4.677071733467e-03, -1.767766952966e-03, 2.700000000000e-02
4032, -3.897559777890e-03, -2.019866607257e-03, 2.700000000000e-02
4033, -3.118047822312e-03, -2.204792759220e-03, 2.700000000000e-02
4034, -2.338535866734e-03, -2.338535866734e-03, 2.700000000000e-02
4035, -1.559023911156e-03, -2.429563289519e-03, 2.700000000000e-02
4036, -7.795119555779e-04, -2.482578184961e-03, 2.700000000000e-02
4037, 0.000000000000e+00, -2.500000000000e-03, 2.700000000000e-02
4038, 7.795119555779e-04, -2.482578184961e-03, 2.700000000000e-02
4039, 1.559023911156e-03, -2.429563289519e-03, 2.700000000000e-02
4040, 2.338535866734e-03, -2.338535866734e-03, 2.700000000000e-02
4041, 3.118047822312e-03, -2.204792759220e-03, 2.700000000000e-02
4042, 3.897559777890e-03, -2.019866607257e-03, 2.700000000000e-02
4043, 4.677071733467e-03, -1.767766952966e-03, 2.700000000000e-02
4044, -4.821015193919e-03, -1.325825214725e-03, 2.700000000000e-02
4045, -4.017512661599e-03, -1.514899955443e-03, 2.700000000000e-02
4046, -3.214010129279e-03, -1.653594569415e-03, 2.700000000000e-02
4047, -2.410507596960e-03, -1.753901900050e-03, 2.700000000000e-02
4048, -1.607005064640e-03, -1.822172467139e-03, 2.700000000000e-02
4049, -8.035025323199e-04, -1.861933638721e-03, 2.700000000000e-02
4050, 0.000000000000e+00, -1.875000000000e-03, 2.700000000000e-02
4051, 8.035025323199e-04, -1.861933638721e-03, 2.700000000000e-02
4052, 1.607005064640e-03, -1.822172467139e-03, 2.700000000000e-02
4053, 2.410507596960e-03, -1.753901900050e-03, 2.700000000000e-02
4054, 3.214010129279e-03, -1.653594569415e-03, 2.700000000000e-02
4055, 4.017512661599e-03, -1.514899955443e-03, 2.700000000000e-02
4056, 4.821015193919e-03, -1.325825214725e-03, 2.700000000000e-02
4057, -4.921254921257e-03, -8.838834764832e-04, 2.700000000000e-02
4058, -4.101045767714e-03, -1.009933303628e-03, 2.700000000000e-02
4059, -3.280836614172e-03, -1.102396379610e-03, 2.700000000000e-02
4060, -2.460627460629e-03, -1.169267933367e-03, 2.700000000000e-02
4061, -1.640418307086e-03, -1.214781644759e-03, 2.700000000000e-02
4062, -8.202091535429e-04, -1.241289092481e-03, 2.700000000000e-02
4063, 0.000000000000e+00, -1.250000000000e-03, 2.700000000000e-02
4064, 8.202091535429e-04, -1.241289092481e-03, 2.700000000000e-02
4065, 1.640418307086e-03, -1.214781644759e-03, 2.700000000000e-02
4066, 2.460627460629e-03, -1.169267933367e-03, 2.700000000000e-02
4067, 3.280836614172e-03, -1.102396379610e-03, 2.700000000000e-02
4068, 4.101045767714e-03, -1.009933303628e-03, 2.700000000000e-02
4069, 4.921254921257e-03, -8.838834764832e-04, 2.700000000000e-02
4070, -4.980430453284e-03, -4.419417382416e-04, 2.700000000000e-02
4071, -4.150358711070e-03, -5.049666518142e-04, 2.700000000000e-02
4072, -3.320286968856e-03, -5.511981898051e-04, 2.700000000000e-02
4073, -2.490215226642e-03, -5.846339666834e-04, 2.700000000000e-02
4074, -1.660143484428e-03, -6.073908223797e-04, 2.700000000000e-02
4075, -8.300717422140e-04, -6.206445462403e-04, 2.700000000000e-02
4076, 0.000000000000e+00, -6.250000000000e-04, 2.700000000000e-02
4077, 8.300717422140e-04, -6.206445462403e-04, 2.700000000000e-02
4078, 1.660143484428e-03, -6.073908223797e-04, 2.700000000000e-02
4079, 2.490215226642e-03, -5.846339666834e-04, 2.700000000000e-02
4080, 3.320286968856e-03, -5.511981898051e-04, 2.700000000000e-02
4081, 4.150358711070e-03, -5.049666518142e-04, 2.700000000000e-02
4082, 4.980430453284e-03, -4.419417382416e-04, 2.700000000000e-02
4083, -5.000000000000e-03, 0.000000000000e+00, 2.700000000000e-02
4084, -4.166666666667e-03, 0.000000000000e+00, 2.700000000000e-02
4085, -3.333333333333e-03, 0.000000000000e+00, 2.700000000000e-02
4086, -2.500000000000e-03, 0.000000000000e+00, 2.700000000000e-02
4087, -1.666666666667e-03, 0.000000000000e+00, 2.700000000000e-02
4088, -8.333333333333e-04, 0.000000000000e+00, 2.700000000000e-02
4089, 0.000000000000e+00, 0.000000000000e+00, 2.700000000000e-02
4090, 8.333333333333e-04, 0.000000000000e+00, 2.700000000000e-02
4091, 1.666666666667e-03, 0.000000000000e+00, 2.700000000000e-02
4092, 2.500000000000e-03, 0.000000000000e+00, 2.700000000000e-02
4093, 3.333333333333e-03, 0.000000000000e+00, 2.700000000000e-02
4094, 4.166666666667e-03, 0.000000000000e+00, 2.700000000000e-02
4095, 5.000000000000e-03, 0.000000000000e+00, 2.700000000000e-02
4096, -4.980430453284e-03, 4.419417382416e-04, 2.700000000000e-02
4097, -4.150358711070e-03, 5.049666518142e-04, 2.700000000000e-02
4098, -3.320286968856e-03, 5.511981898051e-04, 2.700000000000e-02
4099, -2.490215226642e-03, 5.846339666834e-04, 2.700000000000e-02
4100, -1.660143484428e-03, 6.073908223797e-04, 2.700000000000e-02
4101, -8.300717422140e-04, 6.206445462403e-04, 2.700000000000e-02
4102, 0.000000000000e+00, 6.250000000000e-04, 2.700000000000e-02
4103, 8.300717422140e-04, 6.206445462403e-04, 2.700000000000e-02
4104, 1.660143484428e-03, 6.073908223797e-04, 2.700000000000e-02
4105, 2.490215226642e-03, 5.846339666834e-04, 2.700000000000e-02
4106, 3.320286968856e-03, 5.511981898051e-04, 2.700000000000e-02
4107, 4.150358711070e-03, 5.049666518142e-04, 2.700000000000e-02
4108, 4.980430453284e-03, 4.419417382416e-04, 2.700000000000e-02
4109, -4.921254921257e-03, 8.838834764832e-04, 2.700000000000e-02
4110, -4.101045767714e-03, 1.009933303628e-03, 2.700000000000e-02
4111, -3.280836614172e-03, 1.102396379610e-03, 2.700000000000e-02
4112, -2.460627460629e-03, 1.169267933367e-03, 2.700000000000e-02
4113, -1.640418307086e-03, 1.214781644759e-03, 2.700000000000e-02
4114, -8.202091535429e-04, 1.241289092481e-03, 2.700000000000e-02
4115, 0.000000000000e+00, 1.250000000000e-03, 2.700000000000e-02
4116, 8.202091535429e-04, 1.241289092481e-03, 2.700000000000e-02
4117, 1.640418307086e-03, 1.214781644759e-03, 2.700000000000e-02
4118, 2.460627460629e-03, 1.169267933367e-03, 2.700000000000e-02
4119, 3.280836614172e-03, 1.102396379610e-03, 2.700000000000e-02
4120, 4.101045767714e-03, 1.009933303628e-03, 2.700000000000e-02
4121, 4.921254921257e-03, 8.838834764832e-04, 2.700000000000e-02
4122, -4.821015193919e-03, 1.325825214725e-03, 2.700000000000e-02
4123, -4.017512661599e-03, 1.514899955443e-03, 2.700000000000e-02
4124, -3.214010129279e-03, 1.653594569415e-03, 2.700000000000e-02
4125, -2.410507596960e-03, 1.753901900050e-03, 2.700000000000e-02
4126, -1.607005064640e-03, 1.822172467139e-03, 2.700000000000e-02
4127, -8.035025323199e-04, 1.861933638721e-03, 2.700000000000e-02
4128, 0.000000000000e+00, 1.875000000000e-03, 2.700000000000e-02
4129, 8.035025323199e-04, 1.861933638721e-03, 2.700000000000e-02
4130, 1.607005064640e-03, 1.822172467139e-03, 2.700000000000e-02
4131, 2.410507596960e-03, 1.753901900050e-03, 2.700000000000e-02
4132, 3.214010129279e-03, 1.653594569415e-03, 2.700000000000e-02
4133, 4.017512661599e-03, 1.514899955443e-03, 2.700000000000e-02
4134, 4.821015193919e-03, 1.325825214725e-03, 2.700000000000e-02
4135, -4.677071733467e-03, 1.767766952966e-03, 2.700000000000e-02
4136, -3.897559777890e-03, 2.019866607257e-03, 2.700000000000e-02
4137, -3.118047822312e-03, 2.204792759220e-03, 2.700000000000e-02
4138, -2.338535866734e-03, 2.338535866734e-03, 2.700000000000e-02
4139, -1.559023911156e-03, 2.429563289519e-03, 2.700000000000e-02
4140, -7.795119555779e-04, 2.482578184961e-03, 2.700000000000e-02
4141, 0.000000000000e+00, 2.500000000000e-03, 2.700000000000e-02
4142, 7.795119555779e-04, 2.482578184961e-03, 2.700000000000e-02
4143, 1.559023911156e-03, 2.429563289519e-03, 2.700000000000e-02
4144, 2.338535866734e-03, 2.338535866734e-03, 2.700000000000e-02
4145, 3.118047822312e-03, 2.204792759220e-03, 2.700000000000e-02
4146, 3.897559777890e-03, 2.019866607257e-03, 2.700000000000e-02
4147, 4.677071733467e-03, 1.767766952966e-03, 2.700000000000e-02
4148, -4.485218779502e-03, 2.209708691208e-03, 2.700000000000e-02
4149, -3.737682316252e-03, 2.524833259071e-03, 2.700000000000e-02
4150, -2.990145853002e-03, 2.755990949026e-03, 2.700000000000e-02
4151, -2.242609389751e-03, 2.923169833417e-03, 2.700000000000e-02
4152, -1.495072926501e-03, 3.036954111899e-03, 2.700000000000e-02
4153, -7.475364632504e-04, 3.103222731201e-03, 2.700000000000e-02
4154, 0.000000000000e+00, 3.125000000000e-03, 2.700000000000e-02
4155, 7.475364632504e-04, 3.103222731201e-03, 2.700000000000e-02
4156, 1.495072926501e-03, 3.036954111899e-03, 2.700000000000e-02
4157, 2.242609389751e-03, 2.923169833417e-03, 2.700000000000e-02
4158, 2.990145853002e-03, 2.755990949026e-03, 2.700000000000e-02
4159, 3.737682316252e-03, 2.524833259071e-03, 2.700000000000e-02
4160, 4.485218779502e-03, 2.209708691208e-03, 2.700000000000e-02
4161, -4.238956239453e-03, 2.651650429450e-03, 2.700000000000e-02
4162, -3.532463532878e-03, 3.029799910885e-03, 2.700000000000e-02
4163, -2.825970826302e-03, 3.307189138831e-03, 2.700000000000e-02
4164, -2.119478119727e-03, 3.507803800101e-03, 2.700000000000e-02
4165, -1.412985413151e-03, 3.644344934278e-03, 2.700000000000e-02
4166, -7.064927065755e-04, 3.723867277442e-03, 2.700000000000e-02
4167, 0.000000000000e+00, 3.750000000000e-03, 2.700000000000e-02
4168, 7.064927065755e-04, 3.723867277442e-03, 2.700000000000e-02
4169, 1.412985413151e-03, 3.644344934278e-03, 2.700000000000e-02
4170, 2.119478119727e-03, 3.507803800101e-03, 2.700000000000e-02
4171, 2.825970826302e-03, 3.307189138831e-03, 2.700000000000e-02
4172, 3.532463532878e-03, 3.029799910885e-03, 2.700000000000e-02
4173, 4.238956239453e-03, 2.651650429450e-03, 2.700000000000e-02
4174, -3.928064090618e-03, 3.093592167691e-03, 2.700000000000e-02
4175, -3.273386742181e-03, 3.534766562699e-03, 2.700000000000e-02
4176, -2.618709393745e-03, 3.858387328636e-03, 2.700000000000e-02
4177, -1.964032045309e-03, 4.092437766784e-03, 2.700000000000e-02
4178, -1.309354696873e-03, 4.251735756658e-03, 2.700000000000e-02
4179, -6.546773484363e-04, 4.344511823682e-03, 2.700000000000e-02
4180, 0.000000000000e+00, 4.375000000000e-03, 2.700000000000e-02
4181, 6.546773484363e-04, 4.344511823682e-03, 2.700000000000e-02
4182, 1.309354696873e-03, 4.251735756658e-03, 2.700000000000e-02
4183, 1.964032045309e-03, 4.092437766784e-03, 2.700000000000e-02
4184, 2.618709393745e-03, 3.858387328636e-03, 2.700000000000e-02
4185, 3.273386742181e-03, 3.534766562699e-03, 2.700000000000e-02
4186, 3.928064090618e-03, 3.093592167691e-03, 2.700000000000e-02
4187, -3.535533905933e-03, 3.535533905933e-03, 2.700000000000e-02
4188, -2.946278254944e-03, 4.039733214514e-03, 2.700000000000e-02
4189, -2.357022603955e-03, 4.409585518441e-03, 2.700000000000e-02
4190, -1.767766952966e-03, 4.677071733467e-03, 2.700000000000e-02
4191, -1.178511301978e-03, 4.859126579038e-03, 2.700000000000e-02
4192, -5.892556509888e-04, 4.965156369922e-03, 2.700000000000e-02
4193, 0.000000000000e+00, 5.000000000000e-03, 2.700000000000e-02
4194, 5.892556509888e-04, 4.965156369922e-03, 2.700000000000e-02
4195, 1.178511301978e-03, 4.859126579038e-03, 2.700000000000e-02
4196, 1.767766952966e-03, 4.677071733467e-03, 2.700000000000e-02
4197, 2.357022603955e-03, 4.409585518441e-03, 2.700000000000e-02
4198, 2.946278254944e-03, 4.039733214514e-03, 2.700000000000e-02
4199, 3.535533905933e-03, 3.535533905933e-03, 2.700000000000e-02
4200, -3.535533905933e-03, -3.535533905933e-03, 2.850000000000e-02
4201, -2.946278254944e-03, -4.039733214514e-03, 2.850000000000e-02
4202, -2.357022603955e-03, -4.409585518441e-03, 2.850000000000e-02
4203, -1.767766952966e-03, -4.677071733467e-03, 2.850000000000e-02
4204, -1.178511301978e-03, -4.859126579038e-03, 2.850000000000e-02
4205, -5.892556509888e-04, -4.965156369922e-03, 2.850000000000e-02
4206, 0.000000000000e+00, -5.000000000000e-03, 2.850000000000e-02
4207, 5.892556509888e-04, -4.965156369922e-03, 2.850000000000e-02
4208, 1.178511301978e-03, -4.859126579038e-03, 2.850000000000e-02
4209, 1.767766952966e-03, -4.677071733467e-03, 2.850000000000e-02
4210, 2.357022603955e-03, -4.409585518441e-03, 2.850000000000e-02
4211, 2.946278254944e-03, -4.039733214514e-03, 2.850000000000e-02
4212, 3.535533905933e-03, -3.535533905933e-03, 2.850000000000e-02
4213, -3.928064090618e-03, -3.093592167691e-03, 2.850000000000e-02
4214, -3.273386742181e-03, -3.534766562699e-03, 2.850000000000e-02
4215, -2.618709393745e-03, -3.858387328636e-03, 2.850000000000e-02
4216, -1.964032045309e-03, -4.092437766784e-03, 2.850000000000e-02
4217, -1.309354696873e-03, -4.251735756658e-03, 2.850000000000e-02
4218, -6.546773484363e-04, -4.344511823682e-03, 2.850000000000e-02
4219, 0.000000000000e+00, -4.375000000000e-03, 2.850000000000e-02
4220, 6.546773484363e-04, -4.344511823682e-03, 2.850000000000e-02
4221, 1.309354696873e-03, -4.251735756658e-03, 2.850000000000e-02
4222, 1.964032045309e-03, -4.092437766784e-03, 2.850000000000e-02
4223, 2.618709393745e-03, -3.858387328636e-03, 2.850000000000e-02
4224, 3.273386742181e-03, -3.534766562699e-03, 2.850000000000e-02
4225, 3.928064090618e-03, -3.093592167691e-03, 2.850000000000e-02
4226, -4.238956239453e-03, -2.651650429450e-03, 2.850000000000e-02
4227, -3.532463532878e-03, -3.029799910885e-03, 2.850000000000e-02
4228, -2.825970826302e-03, -3.307189138831e-03, 2.850000000000e-02
4229, -2.119478119727e-03, -3.507803800101e-03, 2.850000000000e-02
4230, -1.412985413151e-03, -3.644344934278e-03, 2.850000000000e-02
4231, -7.064927065755e-04, -3.723867277442e-03, 2.850000000000e-02
4232, 0.000000000000e+00, -3.750000000000e-03, 2.850000000000e-02
4233, 7.064927065755e-04, -3.723867277442e-03, 2.850000000000e-02
4234, 1.412985413151e-03, -3.644344934278e-03, 2.850000000000e-02
4235, 2.119478119727e-03, -3.507803800101e-03, 2.850000000000e-02
4236, 2.825970826302e-03, -3.307189138831e-03, 2.850000000000e-02
4237, 3.532463532878e-03, -3.029799910885e-03, 2.850000000000e-02
4238, 4.238956239453e-03, -2.651650429450e-03, 2.850000000000e-02
4239, -4.485218779502e-03, -2.209708691208e-03, 2.850000000000e-02
4240, -3.737682316252e-03, -2.524833259071e-03, 2.850000000000e-02
4241, -2.990145853002e-03, -2.755990949026e-03, 2.850000000000e-02
4242, -2.242609389751e-03, -2.923169833417e-03, 2.850000000000e-02
4243, -1.495072926501e-03, -3.036954111899e-03, 2.850000000000e-02
4244, -7.475364632504e-04, -3.103222731201e-03, 2.850000000000e-02
4245, 0.000000000000e+00, -3.125000000000e-03, 2.850000000000e-02
4246, 7.475364632504e-04, -3.103222731201e-03, 2.850000000000e-02
4247, 1.495072926501e-03, -3.036954111899e-03, 2.850000000000e-02
4248, 2.242609389751e-03, -2.923169833417e-03, 2.850000000000e-02
4249, 2.990145853002e-03, -2.755990949026e-03, 2.850000000000e-02
4250, 3.737682316252e-03, -2.524833259071e-03, 2.850000000000e-02
4251, 4.485218779502e-03, -2.209708691208e-03, 2.850000000000e-02
4252, -4.677071733467e-03, -1.767766952966e-03, 2.850000000000e-02
4253, -3.897559777890e-03, -2.019866607257e-03, 2.850000000000e-02
4254, -3.118047822312e-03, -2.204792759220e-03, 2.850000000000e-02
4255, -2.338535866734e-03, -2.338535866734e-03, 2.850000000000e-02
4256, -1.559023911156e-03, -2.429563289519e-03, 2.850000000000e-02
4257, -7.795119555779e-04, -2.482578184961e-03, 2.850000000000e-02
4258, 0.000000000000e+00, -2.500000000000e-03, 2.850000000000e-02
4259, 7.795119555779e-04, -2.482578184961e-03, 2.850000000000e-02
4260, 1.559023911156e-03, -2.429563289519e-03, 2.850000000000e-02
4261, 2.338535866734e-03, -2.338535866734e-03, 2.850000000000e-02
4262, 3.118047822312e-03, -2.204792759220e-03, 2.850000000000e-02
4263, 3.897559777890e-03, -2.019866607257e-03, 2.850000000000e-02
4264, 4.677071733467e-03, -1.767766952966e-03, 2.850000000000e-02
4265, -4.821015193919e-03, -1.325825214725e-03, 2.850000000000e-02
4266, -4.017512661599e-03, -1.514899955443e-03, 2.850000000000e-02
4267, -3.214010129279e-03, -1.653594569415e-03, 2.850000000000e-02
4268, -2.410507596960e-03, -1.753901900050e-03, 2.850000000000e-02
4269, -1.607005064640e-03, -1.822172467139e-03, 2.850000000000e-02
4270, -8.035025323199e-04, -1.861933638721e-03, 2.850000000000e-02
4271, 0.000000000000e+00, -1.875000000000e-03, 2.850000000000e-02
4272, 8.035025323199e-04, -1.861933638721e-03, 2.850000000000e-02
4273, 1.607005064640e-03, -1.822172467139e-03, 2.850000000000e-02
4274, 2.410507596960e-03, -1.753901900050e-03, 2.850000000000e-02
4275, 3.214010129279e-03, -1.653594569415e-03, 2.850000000000e-02
4276, 4.017512661599e-03, -1.514899955443e-03, 2.850000000000e-02
4277, 4.821015193919e-03, -1.325825214725e-03, 2.850000000000e-02
4278, -4.921254921257e-03, -8.838834764832e-04, 2.850000000000e-02
4279, -4.101045767714e-03, -1.009933303628e-03, 2.850000000000e-02
4280, -3.280836614172e-03, -1.102396379610e-03, 2.850000000000e-02
4281, -2.460627460629e-03, -1.169267933367e-03, 2.850000000000e-02
4282, -1.640418307086e-03, -1.214781644759e-03, 2.850000000000e-02
4283, -8.202091535429e-04, -1.241289092481e-03, 2.850000000000e-02
4284, 0.000000000000e+00, -1.250000000000e-03, 2.850000000000e-02
4285, 8.202091535429e-04, -1.241289092481e-03, 2.850000000000e-02
4286, 1.640418307086e-03, -1.214781644759e-03, 2.850000000000e-02
4287, 2.460627460629e-03, -1.169267933367e-03, 2.850000000000e-02
4288, 3.280836614172e-03, -1.102396379610e-03, 2.850000000000e-02
4289, 4.101045767714e-03, -1.009933303628e-03, 2.850000000000e-02
4290, 4.921254921257e-03, -8.838834764832e-04, 2.850000000000e-02
4291, -4.980430453284e-03, -4.419417382416e-04, 2.850000000000e-02
4292, -4.150358711070e-03, -5.049666518142e-04, 2.850000000000e-02
4293, -3.320286968856e-03, -5.511981898051e-04, 2.850000000000e-02
4294, -2.490215226642e-03, -5.846339666834e-04, 2.850000000000e-02
4295, -1.660143484428e-03, -6.073908223797e-04, 2.850000000000e-02
4296, -8.300717422140e-04, -6.206445462403e-04, 2.850000000000e-02
4297, 0.000000000000e+00, -6.250000000000e-04, 2.850000000000e-02
4298, 8.300717422140e-04, -6.206445462403e-04, 2.850000000000e-02
4299, 1.660143484428e-03, -6.073908223797e-04, 2.850000000000e-02
4300, 2.490215226642e-03, -5.846339666834e-04, 2.850000000000e-02
4301, 3.320286968856e-03, -5.511981898051e-04, 2.850000000000e-02
4302, 4.150358711070e-03, -5.049666518142e-04, 2.850000000000e-02
4303, 4.980430453284e-03, -4.419417382416e-04, 2.850000000000e-02
4304, -5.000000000000e-03, 0.000000000000e+00, 2.850000000000e-02
4305, -4.166666666667e-03, 0.000000000000e+00, 2.850000000000e-02
4306, -3.333333333333e-03, 0.000000000000e+00, 2.850000000000e-02
4307, -2.500000000000e-03, 0.000000000000e+00, 2.850000000000e-02
4308, -1.666666666667e-03, 0.000000000000e+00, 2.850000000000e-02
4309, -8.333333333333e-04, 0.000000000000e+00, 2.850000000000e-02
4310, 0.000000000000e+00, 0.000000000000e+00, 2.850000000000e-02
4311, 8.333333333333e-04, 0.000000000000e+00, 2.850000000000e-02
4312, 1.666666666667e-03, 0.000000000000e+00, 2.850000000000e-02
4313, 2.500000000000e-03, 0.000000000000e+00, 2.850000000000e-02
4314, 3.333333333333e-03, 0.000000000000e+00, 2.850000000000e-02
4315, 4.166666666667e-03, 0.000000000000e+00, 2.850000000000e-02
4316, 5.000000000000e-03, 0.000000000000e+00, 2.850000000000e-02
4317, -4.980430453284e-03, 4.419417382416e-04, 2.850000000000e-02
4318, -4.150358711070e-03, 5.049666518142e-04, 2.850000000000e-02
4319, -3.320286968856e-03, 5.511981898051e-04, 2.850000000000e-02
4320, -2.490215226642e-03, 5.846339666834e-04, 2.850000000000e-02
4321, -1.660143484428e-03, 6.073908223797e-04, 2.850000000000e-02
4322, -8.300717422140e-04, 6.206445462403e-04, 2.850000000000e-02
4323, 0.000000000000e+00, 6.250000000000e-04, 2.850000000000e-02
4324, 8.300717422140e-04, 6.206445462403e-04, 2.850000000000e-02
4325, 1.660143484428e-03, 6.073908223797e-04, 2.850000000000e-02
4326, 2.490215226642e-03, 5.846339666834e-04, 2.850000000000e-02
4327, 3.320286968856e-03, 5.511981898051e-04, 2.850000000000e-02
4328, 4.150358711070e-03, 5.049666518142e-04, 2.850000000000e-02
4329, 4.980430453284e-03, 4.419417382416e-04, 2.850000000000e-02
4330, -4.921254921257e-03, 8.838834764832e-04, 2.850000000000e-02
4331, -4.101045767714e-03, 1.009933303628e-03, 2.850000000000e-02
4332, -3.280836614172e-03, 1.102396379610e-03, 2.850000000000e-02
4333, -2.460627460629e-03, 1.169267933367e-03, 2.850000000000e-02
4334, -1.640418307086e-03, 1.214781644759e-03, 2.850000000000e-02
4335, -8.202091535429e-04, 1.241289092481e-03, 2.850000000000e-02
4336, 0.000000000000e+00, 1.250000000000e-03, 2.850000000000e-02
4337, 8.202091535429e-04, 1.241289092481e-03, 2.850000000000e-02
4338, 1.640418307086e-03, 1.214781644759e-03, 2.850000000000e-02
4339, 2.460627460629e-03, 1.169267933367e-03, 2.850000000000e-02
4340, 3.280836614172e-03, 1.102396379610e-03, 2.850000000000e-02
4341, 4.101045767714e-03, 1.009933303628e-03, 2.850000000000e-02
4342, 4.921254921257e-03, 8.838834764832e-04, 2.850000000000e-02
4343, -4.821015193919e-03, 1.325825214725e-03, 2.850000000000e-02
4344, -4.017512661599e-03, 1.514899955443e-03, 2.850000000000e-02
4345, -3.214010129279e-03, 1.653594569415e-03, 2.850000000000e-02
4346, -2.410507596960e-03, 1.753901900050e-03, 2.850000000000e-02
4347, -1.607005064640e-03, 1.822172467139e-03, 2.850000000000e-02
4348, -8.035025323199e-04, 1.861933638721e-03, 2.850000000000e-02
4349, 0.000000000000e+00, 1.875000000000e-03, 2.850000000000e-02
4350, 8.035025323199e-04, 1.861933638721e-03, 2.850000000000e-02
4351, 1.607005064640e-03, 1.822172467139e-03, 2.850000000000e-02
4352, 2.410507596960e-03, 1.753901900050e-03, 2.850000000000e-02
4353, 3.214010129279e-03, 1.653594569415e-03, 2.850000000000e-02
4354, 4.017512661599e-03, 1.514899955443e-03, 2.850000000000e-02
4355, 4.821015193919e-03, 1.325825214725e-03, 2.850000000000e-02
4356, -4.677071733467e-03, 1.767766952966e-03, 2.850000000000e-02
4357, -3.897559777890e-03, 2.019866607257e-03, 2.850000000000e-02
4358, -3.118047822312e-03, 2.204792759220e-03, 2.850000000000e-02
4359, -2.338535866734e-03, 2.338535866734e-03, 2.850000000000e-02
4360, -1.559023911156e-03, 2.429563289519e-03, 2.850000000000e-02
4361, -7.795119555779e-04, 2.482578184961e-03, 2.850000000000e-02
4362, 0.000000000000e+00, 2.500000000000e-03, 2.850000000000e-02
4363, 7.795119555779e-04, 2.482578184961e-03, 2.850000000000e-02
4364, 1.559023911156e-03, 2.429563289519e-03, 2.850000000000e-02
4365, 2.338535866734e-03, 2.338535866734e-03, 2.850000000000e-02
4366, 3.118047822312e-03, 2.204792759220e-03, 2.850000000000e-02
4367, 3.897559777890e-03, 2.019866607257e-03, 2.850000000000e-02
4368, 4.677071733467e-03, 1.767766952966e-03, 2.850000000000e-02
4369, -4.485218779502e-03, 2.209708691208e-03, 2.850000000000e-02
4370, -3.737682316252e-03, 2.524833259071e-03, 2.850000000000e-02
4371, -2.990145853002e-03, 2.755990949026e-03, 2.850000000000e-02
4372, -2.242609389751e-03, 2.923169833417e-03, 2.850000000000e-02
4373, -1.495072926501e-03, 3.036954111899e-03, 2.850000000000e-02
4374, -7.475364632504e-04, 3.103222731201e-03, 2.850000000000e-02
4375, 0.000000000000e+00, 3.125000000000e-03, 2.850000000000e-02
4376, 7.475364632504e-04, 3.103222731201e-03, 2.850000000000e-02
4377, 1.495072926501e-03, 3.036954111899e-03, 2.850000000000e-02
4378, 2.242609389751e-03, 2.923169833417e-03, 2.850000000000e-02
4379, 2.990145853002e-03, 2.755990949026e-03, 2.850000000000e-02
4380, 3.737682316252e-03, 2.524833259071e-03, 2.850000000000e-02
4381, 4.485218779502e-03, 2.209708691208e-03, 2.850000000000e-02
4382, -4.238956239453e-03, 2.651650429450e-03, 2.850000000000e-02
4383, -3.532463532878e-03, 3.029799910885e-03, 2.850000000000e-02
4384, -2.825970826302e-03, 3.307189138831e-03, 2.850000000000e-02
4385, -2.119478119727e-03, 3.507803800101e-03, 2.850000000000e-02
4386, -1.412985413151e-03, 3.644344934278e-03, 2.850000000000e-02
4387, -7.064927065755e-04, 3.723867277442e-03, 2.850000000000e-02
4388, 0.000000000000e+00, 3.750000000000e-03, 2.850000000000e-02
4389, 7.064927065755e-04, 3.723867277442e-03, 2.850000000000e-02
4390, 1.412985413151e-03, 3.644344934278e-03, 2.850000000000e-02
4391, 2.119478119727e-03, 3.507803800101e-03, 2.850000000000e-02
4392, 2.825970826302e-03, 3.307189138831e-03, 2.850000000000e-02
4393, 3.532463532878e-03, 3.029799910885e-03, 2.850000000000e-02
4394, 4.238956239453e-03, 2.651650429450e-03, 2.850000000000e-02
4395, -3.928064090618e-03, 3.093592167691e-03, 2.850000000000e-02
4396, -3.273386742181e-03, 3.534766562699e-03, 2.850000000000e-02
4397, -2.618709393745e-03, 3.858387328636e-03, 2.850000000000e-02
4398, -1.964032045309e-03, 4.092437766784e-03, 2.850000000000e-02
4399, -1.309354696873e-03, 4.251735756658e-03, 2.850000000000e-02
4400, -6.546773484363e-04, 4.344511823682e-03, 2.850000000000e-02
4401, 0.000000000000e+00, 4.375000000000e-03, 2.850000000000e-02
4402, 6.546773484363e-04, 4.344511823682e-03, 2.850000000000e-02
4403, 1.309354696873e-03, 4.251735756658e-03, 2.850000000000e-02
4404, 1.964032045309e-03, 4.092437766784e-03, 2.850000000000e-02
4405, 2.618709393745e-03, 3.858387328636e-03, 2.850000000000e-02
4406, 3.273386742181e-03, 3.534766562699e-03, 2.850000000000e-02
4407, 3.928064090618e-03, 3.093592167691e-03, 2.850000000000e-02
4408, -3.535533905933e-03, 3.535533905933e-03, 2.850000000000e-02
4409, -2.946278254944e-03, 4.039733214514e-03, 2.850000000000e-02
4410, -2.357022603955e-03, 4.409585518441e-03, 2.850000000000e-02
4411, -1.767766952966e-03, 4.677071733467e-03, 2.850000000000e-02
4412, -1.178511301978e-03, 4.859126579038e-03, 2.850000000000e-02
4413, -5.892556509888e-04, 4.965156369922e-03, 2.850000000000e-02
4414, 0.000000000000e+00, 5.000000000000e-03, 2.850000000000e-02
4415, 5.892556509888e-04, 4.965156369922e-03, 2.850000000000e-02
4416, 1.178511301978e-03, 4.859126579038e-03, 2.850000000000e-02
4417, 1.767766952966e-03, 4.677071733467e-03, 2.850000000000e-02
4418, 2.357022603955e-03, 4.409585518441e-03, 2.850000000000e-02
4419, 2.946278254944e-03, 4.039733214514e-03, 2.850000000000e-02
4420, 3.535533905933e-03, 3.535533905933e-03, 2.850000000000e-02
4421, -3.535533905933e-03, -3.535533905933e-03, 3.000000000000e-02
4422, -2.946278254944e-03, -4.039733214514e-03, 3.000000000000e-02
4423, -2.357022603955e-03, -4.409585518441e-03, 3.000000000000e-02
4424, -1.767766952966e-03, -4.677071733467e-03, 3.000000000000e-02
4425, -1.178511301978e-03, -4.859126579038e-03, 3.000000000000e-02
4426, -5.892556509888e-04, -4.965156369922e-03, 3.000000000000e-02
4427, 0.000000000000e+00, -5.000000000000e-03, 3.000000000000e-02
4428, 5.892556509888e-04, -4.965156369922e-03, 3.000000000000e-02
4429, 1.178511301978e-03, -4.859126579038e-03, 3.000000000000e-02
4430, 1.767766952966e-03, -4.677071733467e-03, 3.000000000000e-02
4431, 2.357022603955e-03, -4.409585518441e-03, 3.000000000000e-02
4432, 2.946278254944e-03, -4.039733214514e-03, 3.000000000000e-02
4433, 3.535533905933e-03, -3.535533905933e-03, 3.000000000000e-02
4434, -3.928064090618e-03, -3.093592167691e-03, 3.000000000000e-02
4435, -3.273386742181e-03, -3.534766562699e-03, 3.000000000000e-02
4436, -2.618709393745e-03, -3.858387328636e-03, 3.000000000000e-02
4437, -1.964032045309e-03, -4.092437766784e-03, 3.000000000000e-02
4438, -1.309354696873e-03, -4.251735756658e-03, 3.000000000000e-02
4439, -6.546773484363e-04, -4.344511823682e-03, 3.000000000000e-02
4440, 0.000000000000e+00, -4.375000000000e-03, 3.000000000000e-02
4441, 6.546773484363e-04, -4.344511823682e-03, 3.000000000000e-02
4442, 1.309354696873e-03, -4.251735756658e-03, 3.000000000000e-02
4443, 1.964032045309e-03, -4.092437766784e-03, 3.000000000000e-02
4444, 2.618709393745e-03, -3.858387328636e-03, 3.000000000000e-02
4445, 3.273386742181e-03, -3.534766562699e-03, 3.000000000000e-02
4446, 3.928064090618e-03, -3.093592167691e-03, 3.000000000000e-02
4447, -4.238956239453e-03, -2.651650429450e-03, 3.000000000000e-02
4448, -3.532463532878e-03, -3.029799910885e-03, 3.000000000000e-02
4449, -2.825970826302e-03, -3.307189138831e-03, 3.000000000000e-02
4450, -2.119478119727e-03, -3.507803800101e-03, 3.000000000000e-02
4451, -1.412985413151e-03, -3.644344934278e-03, 3.000000000000e-02
4452, -7.064927065755e-04, -3.723867277442e-03, 3.000000000000e-02
4453, 0.000000000000e+00, -3.750000000000e-03, 3.000000000000e-02
4454, 7.064927065755e-04, -3.723867277442e-03, 3.000000000000e-02
4455, 1.412985413151e-03, -3.644344934278e-03, 3.000000000000e-02
4456, 2.119478119727e-03, -3.507803800101e-03, 3.000000000000e-02
4457, 2.825970826302e-03, -3.307189138831e-03, 3.000000000000e-02
4458, 3.532463532878e-03, -3.029799910885e-03, 3.000000000000e-02
4459, 4.238956239453e-03, -2.651650429450e-03, 3.000000000000e-02
4460, -4.485218779502e-03, -2.209708691208e-03, 3.000000000000e-02
4461, -3.737682316252e-03, -2.524833259071e-03, 3.000000000000e-02
4462, -2.990145853002e-03, -2.755990949026e-03, 3.000000000000e-02
4463, -2.242609389751e-03, -2.923169833417e-03, 3.000000000000e-02
4464, -1.495072926501e-03, -3.036954111899e-03, 3.000000000000e-02
4465, -7.475364632504e-04, -3.103222731201e-03, 3.000000000000e-02
4466, 0.000000000000e+00, -3.125000000000e-03, 3.000000000000e-02
4467, 7.475364632504e-04, -3.103222731201e-03, 3.000000000000e-02
4468, 1.495072926501e-03, -3.036954111899e-03, 3.000000000000e-02
4469, 2.242609389751e-03, -2.923169833417e-03, 3.000000000000e-02
4470, 2.990145853002e-03, -2.755990949026e-03, 3.000000000000e-02
4471, 3.737682316252e-03, -2.524833259071e-03, 3.000000000000e-02
4472, 4.485218779502e-03, -2.209708691208e-03, 3.000000000000e-02
4473, -4.677071733467e-03, -1.767766952966e-03, 3.000000000000e-02
4474, -3.897559777890e-03, -2.019866607257e-03, 3.000000000000e-02
4475, -3.118047822312e-03, -2.204792759220e-03, 3.000000000000e-02
4476, -2.338535866734e-03, -2.338535866734e-03, 3.000000000000e-02
4477, -1.559023911156e-03, -2.429563289519e-03, 3.000000000000e-02
4478, -7.795119555779e-04, -2.482578184961e-03, 3.000000000000e-02
4479, 0.000000000000e+00, -2.500000000000e-03, 3.000000000000e-02
4480, 7.795119555779e-04, -2.482578184961e-03, 3.000000000000e-02
4481, 1.559023911156e-03, -2.429563289519e-03, 3.000000000000e-02
4482, 2.338535866734e-03, -2.338535866734e-03, 3.000000000000e-02
4483, 3.118047822312e-03, -2.204792759220e-03, 3.000000000000e-02
4484, 3.897559777890e-03, -2.019866607257e-03, 3.000000000000e-02
4485, 4.677071733467e-03, -1.767766952966e-03, 3.000000000000e-02
4486, -4.821015193919e-03, -1.325825214725e-03, 3.000000000000e-02
4487, -4.017512661599e-03, -1.514899955443e-03, 3.000000000000e-02
4488, -3.214010129279e-03, -1.653594569415e-03, 3.000000000000e-02
4489, -2.410507596960e-03, -1.753901900050e-03, 3.000000000000e-02
4490, -1.607005064640e-03, -1.822172467139e-03, 3.000000000000e-02
4491, -8.035025323199e-04, -1.861933638721e-03, 3.000000000000e-02
4492, 0.000000000000e+00, -1.875000000000e-03, 3.000000000000e-02
4493, 8.035025323199e-04, -1.861933638721e-03, 3.000000000000e-02
4494, 1.607005064640e-03, -1.822172467139e-03, 3.000000000000e-02
4495, 2.410507596960e-03, -1.753901900050e-03, 3.000000000000e-02
4496, 3.214010129279e-03, -1.653594569415e-03, 3.000000000000e-02
4497, 4.017512661599e-03, -1.514899955443e-03, 3.000000000000e-02
4498, 4.821015193919e-03, -1.325825214725e-03, 3.000000000000e-02
4499, -4.921254921257e-03, -8.838834764832e-04, 3.000000000000e-02
4500, -4.101045767714e-03, -1.009933303628e-03, 3.000000000000e-02
4501, -3.280836614172e-03, -1.102396379610e-03, 3.000000000000e-02
4502, -2.460627460629e-03, -1.169267933367e-03, 3.000000000000e-02
4503, -1.640418307086e-03, -1.214781644759e-03, 3.000000000000e-02
4504, -8.202091535429e-04, -1.241289092481e-03, 3.000000000000e-02
4505, 0.000000000000e+00, -1.250000000000e-03, 3.000000000000e-02
4506, 8.202091535429e-04, -1.241289092481e-03, 3.000000000000e-02
4507, 1.640418307086e-03, -1.214781644759e-03, 3.000000000000e-02
4508, 2.460627460629e-03, -1.169267933367e-03, 3.000000000000e-02
4509, 3.280836614172e-03, -1.102396379610e-03, 3.000000000000e-02
4510, 4.101045767714e-03, -1.009933303628e-03, 3.000000000000e-02
4511, 4.921254921257e-03, -8.838834764832e-04, 3.000000000000e-02
4512, -4.980430453284e-03, -4.419417382416e-04, 3.000000000000e-02
4513, -4.150358711070e-03, -5.049666518142e-04, 3.000000000000e-02
4514, -3.320286968856e-03, -5.511981898051e-04, 3.000000000000e-02
4515, -2.490215226642e-03, -5.846339666834e-04, 3.000000000000e-02
4516, -1.660143484428e-03, -6.073908223797e-04, 3.000000000000e-02
4517, -8.300717422140e-04, -6.206445462403e-04, 3.000000000000e-02
4518, 0.000000000000e+00, -6.250000000000e-04, 3.000000000000e-02
4519, 8.300717422140e-04, -6.206445462403e-04, 3.000000000000e-02
4520, 1.660143484428e-03, -6.073908223797e-04, 3.000000000000e-02
4521, 2.490215226642e-03, -5.846339666834e-04, 3.000000000000e-02
4522, 3.320286968856e-03, -5.511981898051e-04, 3.000000000000e-02
4523, 4.150358711070e-03, -5.049666518142e-04, 3.000000000000e-02
4524, 4.980430453284e-03, -4.419417382416e-04, 3.000000000000e-02
4525, -5.000000000000e-03, 0.000000000000e+00, 3.000000000000e-02
4526, -4.166666666667e-03, 0.000000000000e+00, 3.000000000000e-02
4527, -3.333333333333e-03, 0.000000000000e+00, 3.000000000000e-02
4528, -2.500000000000e-03, 0.000000000000e+00, 3.000000000000e-02
4529, -1.666666666667e-03, 0.000000000000e+00, 3.000000000000e-02
4530, -8.333333333333e-04, 0.000000000000e+00, 3.000000000000e-02
4531, 0.000000000000e+00, 0.000000000000e+00, 3.000000000000e-02
4532, 8.333333333333e-04, 0.000000000000e+00, 3.000000000000e-02
4533, 1.666666666667e-03, 0.000000000000e+00, 3.000000000000e-02
4534, 2.500000000000e-03, 0.000000000000e+00, 3.000000000000e-02
4535, 3.333333333333e-03, 0.000000000000e+00, 3.000000000000e-02
4536, 4.166666666667e-03, 0.000000000000e+00, 3.000000000000e-02
4537, 5.000000000000e-03, 0.000000000000e+00, 3.000000000000e-02
4538, -4.980430453284e-03, 4.419417382416e-04, 3.000000000000e-02
4539, -4.150358711070e-03, 5.049666518142e-04, 3.000000000000e-02
4540, -3.320286968856e-03, 5.511981898051e-04, 3.000000000000e-02
4541, -2.490215226642e-03, 5.846339666834e-04, 3.000000000000e-02
4542, -1.660143484428e-03, 6.073908223797e-04, 3.000000000000e-02
4543, -8.300717422140e-04, 6.206445462403e-04, 3.000000000000e-02
4544, 0.000000000000e+00, 6.250000000000e-04, 3.000000000000e-02
4545, 8.300717422140e-04, 6.206445462403e-04, 3.000000000000e-02
4546, 1.660143484428e-03, 6.073908223797e-04, 3.000000000000e-02
4547, 2.490215226642e-03, 5.846339666834e-04, 3.000000000000e-02
4548, 3.320286968856e-03, 5.511981898051e-04, 3.000000000000e-02
4549, 4.150358711070e-03, 5.049666518142e-04, 3.000000000000e-02
4550, 4.980430453284e-03, 4.419417382416e-04, 3.000000000000e-02
4551, -4.921254921257e-03, 8.838834764832e-04, 3.000000000000e-02
4552, -4.101045767714e-03, 1.009933303628e-03, 3.000000000000e-02
4553, -3.280836614172e-03, 1.102396379610e-03, 3.000000000000e-02
4554, -2.460627460629e-03, 1.169267933367e-03, 3.000000000000e-02
4555, -1.640418307086e-03, 1.214781644759e-03, 3.000000000000e-02
4556, -8.202091535429e-04, 1.241289092481e-03, 3.000000000000e-02
4557, 0.000000000000e+00, 1.250000000000e-03, 3.000000000000e-02
4558, 8.202091535429e-04, 1.241289092481e-03, 3.000000000000e-02
4559, 1.640418307086e-03, 1.214781644759e-03, 3.000000000000e-02
4560, 2.460627460629e-03, 1.169267933367e-03, 3.000000000000e-02
4561, 3.280836614172e-03, 1.102396379610e-03, 3.000000000000e-02
4562, 4.101045767714e-03, 1.009933303628e-03, 3.000000000000e-02
4563, 4.921254921257e-03, 8.838834764832e-04, 3.000000000000e-02
4564, -4.821015193919e-03, 1.325825214725e-03, 3.000000000000e-02
4565, -4.017512661599e-03, 1.514899955443e-03, 3.000000000000e-02
4566, -3.214010129279e-03, 1.653594569415e-03, 3.000000000000e-02
4567, -2.410507596960e-03, 1.753901900050e-03, 3.000000000000e-02
4568, -1.607005064640e-03, 1.822172467139e-03, 3.000000000000e-02
4569, -8.035025323199e-04, 1.861933638721e-03, 3.000000000000e-02
4570, 0.000000000000e+00, 1.875000000000e-03, 3.000000000000e-02
4571, 8.035025323199e-04, 1.861933638721e-03, 3.000000000000e-02
4572, 1.607005064640e-03, 1.822172467139e-03, 3.000000000000e-02
4573, 2.410507596960e-03, 1.753901900050e-03, 3.000000000000e-02
4574, 3.214010129279e-03, 1.653594569415e-03, 3.000000000000e-02
4575, 4.017512661599e-03, 1.514899955443e-03, 3.000000000000e-02
4576, 4.821015193919e-03, 1.325825214725e-03, 3.000000000000e-02
4577, -4.677071733467e-03, 1.767766952966e-03, 3.000000000000e-02
4578, -3.897559777890e-03, 2.019866607257e-03, 3.000000000000e-02
4579, -3.118047822312e-03, 2.204792759220e-03, 3.000000000000e-02
4580, -2.338535866734e-03, 2.338535866734e-03, 3.000000000000e-02
4581, -1.559023911156e-03, 2.429563289519e-03, 3.000000000000e-02
4582, -7.795119555779e-04, 2.482578184961e-03, 3.000000000000e-02
4583, 0.000000000000e+00, 2.500000000000e-03, 3.000000000000e-02
4584, 7.795119555779e-04, 2.482578184961e-03, 3.000000000000e-02
4585, 1.559023911156e-03, 2.429563289519e-03, 3.000000000000e-02
4586, 2.338535866734e-03, 2.338535866734e-03, 3.000000000000e-02
4587, 3.118047822312e-03, 2.204792759220e-03, 3.000000000000e-02
4588, 3.897559777890e-03, 2.019866607257e-03, 3.000000000000e-02
4589, 4.677071733467e-03, 1.767766952966e-03, 3.000000000000e-02
4590, -4.485218779502e-03, 2.209708691208e-03, 3.000000000000e-02
4591, -3.737682316252e-03, 2.524833259071e-03, 3.000000000000e-02
4592, -2.990145853002e-03, 2.755990949026e-03, 3.000000000000e-02
4593, -2.242609389751e-03, 2.923169833417e-03, 3.000000000000e-02
4594, -1.495072926501e-03, 3.036954111899e-03, 3.000000000000e-02
4595, -7.475364632504e-04, 3.103222731201e-03, 3.000000000000e-02
4596, 0.000000000000e+00, 3.125000000000e-03, 3.000000000000e-02
4597, 7.475364632504e-04, 3.103222731201e-03, 3.000000000000e-02
4598, 1.495072926501e-03, 3.036954111899e-03, 3.000000000000e-02
4599, 2.242609389751e-03, 2.923169833417e-03, 3.000000000000e-02
4600, 2.990145853002e-03, 2.755990949026e-03, 3.000000000000e-02
4601, 3.737682316252e-03, 2.524833259071e-03, 3.000000000000e-02
4602, 4.485218779502e-03, 2.209708691208e-03, 3.000000000000e-02
4603, -4.238956239453e-03, 2.651650429450e-03, 3.000000000000e-02
4604, -3.532463532878e-03, 3.029799910885e-03, 3.000000000000e-02
4605, -2.825970826302e-03, 3.307189138831e-03, 3.000000000000e-02
4606, -2.119478119727e-03, 3.507803800101e-03, 3.000000000000e-02
4607, -1.412985413151e-03, 3.644344934278e-03, 3.000000000000e-02
4608, -7.064927065755e-04, 3.723867277442e-03, 3.000000000000e-02
4609, 0.000000000000e+00, 3.750000000000e-03, 3.000000000000e-02
4610, 7.064927065755e-04, 3.723867277442e-03, 3.000000000000e-02
4611, 1.412985413151e-03, 3.644344934278e-03, 3.000000000000e-02
4612, 2.119478119727e-03, 3.507803800101e-03, 3.000000000000e-02
4613, 2.825970826302e-03, 3.307189138831e-03, 3.000000000000e-02
4614, 3.532463532878e-03, 3.029799910885e-03, 3.000000000000e-02
4615, 4.238956239453e-03, 2.651650429450e-03, 3.000000000000e-02
4616, -3.928064090618e-03, 3.093592167691e-03, 3.000000000000e-02
4617, -3.273386742181e-03, 3.534766562699e-03, 3.000000000000e-02
4618, -2.618709393745e-03, 3.858387328636e-03, 3.000000000000e-02
4619, -1.964032045309e-03, 4.092437766784e-03, 3.000000000000e-02
4620, -1.309354696873e-03, 4.251735756658e-03, 3.000000000000e-02
4621, -6.546773484363e-04, 4.344511823682e-03, 3.000000000000e-02
4622, 0.000000000000e+00, 4.375000000000e-03, 3.000000000000e-02
4623, 6.546773484363e-04, 4.344511823682e-03, 3.000000000000e-02
4624, 1.309354696873e-03, 4.251735756658e-03, 3.000000000000e-02
4625, 1.964032045309e-03, 4.092437766784e-03, 3.000000000000e-02
4626, 2.618709393745e-03, 3.858387328636e-03, 3.000000000000e-02
4627, 3.273386742181e-03, 3.534766562699e-03, 3.000000000000e-02
4628, 3.928064090618e-03, 3.093592167691e-03, 3.000000000000e-02
4629, -3.535533905933e-03, 3.535533905933e-03, 3.000000000000e-02
4630, -2.946278254944e-03, 4.039733214514e-03, 3.000000000000e-02
4631, -2.357022603955e-03, 4.409585518441e-03, 3.000000000000e-02
4632, -1.767766952966e-03, 4.677071733467e-03, 3.000000000000e-02
4633, -1.178511301978e-03, 4.859126579038e-03, 3.000000000000e-02
4634, -5.892556509888e-04, 4.965156369922e-03, 3.000000000000e-02
4635, 0.000000000000e+00, 5.000000000000e-03, 3.000000000000e-02
4636, 5.892556509888e-04, 4.965156369922e-03, 3.000000000000e-02
4637, 1.178511301978e-03, 4.859126579038e-03, 3.000000000000e-02
4638, 1.767766952966e-03, 4.677071733467e-03, 3.000000000000e-02
4639, 2.357022603955e-03, 4.409585518441e-03, 3.000000000000e-02
4640, 2.946278254944e-03, 4.039733214514e-03, 3.000000000000e-02
4641, 3.535533905933e-03, 3.535533905933e-03, 3.000000000000e-02
*Element, type=C3D8RT, elset=ALL_ELEMENTS
1, 1, 2, 15, 14, 222, 223, 236, 235
2, 2, 3, 16, 15, 223, 224, 237, 236
3, 3, 4, 17, 16, 224, 225, 238, 237
4, 4, 5, 18, 17, 225, 226, 239, 238
5, 5, 6, 19, 18, 226, 227, 240, 239
6, 6, 7, 20, 19, 227, 228, 241, 240
7, 7, 8, 21, 20, 228, 229, 242, 241
8, 8, 9, 22, 21, 229, 230, 243, 242
9, 9, 10, 23, 22, 230, 231, 244, 243
10, 10, 11, 24, 23, 231, 232, 245, 244
11, 11, 12, 25, 24, 232, 233, 246, 245
12, 12, 13, 26, 25, 233, 234, 247, 246
13, 14, 15, 28, 27, 235, 236, 249, 248
14, 15, 16, 29, 28, 236, 237, 250, 249
15, 16, 17, 30, 29, 237, 238, 251, 250
16, 17, 18, 31, 30, 238, 239, 252, 251
17, 18, 19, 32, 31, 239, 240, 253, 252
18, 19, 20, 33, 32, 240, 241, 254, 253
19, 20, 21, 34, 33, 241, 242, 255, 254
20, 21, 22, 35, 34, 242, 243, 256, 255
21, 22, 23, 36, 35, 243, 244, 257, 256
22, 23, 24, 37, 36, 244, 245, 258, 257
23, 24, 25, 38, 37, 245, 246, 259, 258
24, 25, 26, 39, 38, 246, 247, 260, 259
25, 27, 28, 41, 40, 248, 249, 262, 261
26, 28, 29, 42, 41, 249, 250, 263, 262
27, 29, 30, 43, 42, 250, 251, 264, 263
28, 30, 31, 44, 43, 251, 252, 265, 264
29, 31, 32, 45, 44, 252, 253, 266, 265
30, 32, 33, 46, 45, 253, 254, 267, 266
31, 33, 34, 47, 46, 254, 255, 268, 267
32, 34, 35, 48, 47, 255, 256, 269, 268
33, 35, 36, 49, 48, 256, 257, 270, 269
34, 36, 37, 50, 49, 257, 258, 271, 270
35, 37, 38, 51, 50, 258, 259, 272, 271
36, 38, 39, 52, 51, 259, 260, 273, 272
37, 40, 41, 54, 53, 261, 262, 275, 274
38, 41, 42, 55, 54, 262, 263, 276, 275
39, 42, 43, 56, 55, 263, 264, 277, 276
40, 43, 44, 57, 56, 264, 265, 278, 277
41, 44, 45, 58, 57, 265, 266, 279, 278
42, 45, 46, 59, 58, 266, 267, 280, 279
43, 46, 47, 60, 59, 267, 268, 281, 280
44, 47, 48, 61, 60, 268, 269, 282, 281
45, 48, 49, 62, 61, 269, 270, 283, 282
46, 49, 50, 63, 62, 270, 271, 284, 283
47, 50, 51, 64, 63, 271, 272, 285, 284
48, 51, 52, 65, 64, 272, 273, 286, 285
49, 53, 54, 67, 66, 274, 275, 288, 287
50, 54, 55, 68, 67, 275, 276, 289, 288
51, 55, 56, 69, 68, 276, 277, 290, 289
52, 56, 57, 70, 69, 277, 278, 291, 290
53, 57, 58, 71, 70, 278, 279, 292, 291
54, 58, 59, 72, 71, 279, 280, 293, 292
55, 59, 60, 73, 72, 280, 281, 294, 293
56, 60, 61, 74, 73, 281, 282, 295, 294
57, 61, 62, 75, 74, 282, 283, 296, 295
58, 62, 63, 76, 75, 283, 284, 297, 296
59, 63, 64, 77, 76, 284, 285, 298, 297
60, 64, 65, 78, 77, 285, 286, 299, 298
61, 66, 67, 80, 79, 287, 288, 301, 300
62, 67, 68, 81, 80, 288, 289, 302, 301
63, 68, 69, 82, 81, 289, 290, 303, 302
64, 69, 70, 83, 82, 290, 291, 304, 303
65, 70, 71, 84, 83, 291, 292, 305, 304
66, 71, 72, 85, 84, 292, 293, 306, 305
67, 72, 73, 86, 85, 293, 294, 307, 306
68, 73, 74, 87, 86, 294, 295, 308, 307
69, 74, 75, 88, 87, 295, 296, 309, 308
70, 75, 76, 89, 88, 296, 297, 310, 309
71, 76, 77, 90, 89, 297, 298, 311, 310
72, 77, 78, 91, 90, 298, 299, 312, 311
73, 79, 80, 93, 92, 300, 301, 314, 313
74, 80, 81, 94, 93, 301, 302, 315, 314
75, 81, 82, 95, 94, 302, 303, 316, 315
76, 82, 83, 96, 95, 303, 304, 317, 316
77, 83, 84, 97, 96, 304, 305, 318, 317
78, 84, 85, 98, 97, 305, 306, 319, 318
79, 85, 86, 99, 98, 306, 307, 320, 319
80, 86, 87, 100, 99, 307, 308, 321, 320
81, 87, 88, 101, 100, 308, 309, 322, 321
82, 88, 89, 102, 101, 309, 310, 323, 322
83, 89, 90, 103, 102, 310, 311, 324, 323
84, 90, 91, 104, 103, 311, 312, 325, 324
85, 92, 93, 106, 105, 313, 314, 327, 326
86, 93, 94, 107, 106, 314, 315, 328, 327
87, 94, 95, 108, 107, 315, 316, 329, 328
88, 95, 96, 109, 108, 316, 317, 330, 329
89, 96, 97, 110, 109, 317, 318, 331, 330
90, 97, 98, 111, 110, 318, 319, 332, 331
91, 98, 99, 112, 111, 319, 320, 333, 332
92, 99, 100, 113, 112, 320, 321, 334, 333
93, 100, 101, 114, 113, 321, 322, 335, 334
94, 101, 102, 115, 114, 322, 323, 336, 335
95, 102, 103, 116, 115, 323, 324, 337, 336
96, 103, 104, 117, 116, 324, 325, 338, 337
97, 105, 106, 119, 118, 326, 327, 340, 339
98, 106, 107, 120, 119, 327, 328, 341, 340
99, 107, 108, 121, 120, 328, 329, 342, 341
100, 108, 109, 122, 121, 329, 330, 343, 342
101, 109, 110, 123, 122, 330, 331, 344, 343
102, 110, 111, 124, 123, 331, 332, 345, 344
103, 111, 112, 125, 124, 332, 333, 346, 345
104, 112, 113, 126, 125, 333, 334, 347, 346
105, 113, 114, 127, 126, 334, 335, 348, 347
106, 114, 115, 128, 127, 335, 336, 349, 348
107, 115, 116, 129, 128, 336, 337, 350, 349
108, 116, 117, 130, 129, 337, 338, 351, 350
109, 118, 119, 132, 131, 339, 340, 353, 352
110, 119, 120, 133, 132, 340, 341, 354, 353
111, 120, 121, 134, 133, 341, 342, 355, 354
112, 121, 122, 135, 134, 342, 343, 356, 355
113, 122, 123, 136, 135, 343, 344, 357, 356
114, 123, 124, 137, 136, 344, 345, 358, 357
115, 124, 125, 138, 137, 345, 346, 359, 358
116, 125, 126, 139, 138, 346, 347, 360, 359
117, 126, 127, 140, 139, 347, 348, 361, 360
118, 127, 128, 141, 140, 348, 349, 362, 361
119, 128, 129, 142, 141, 349, 350, 363, 362
120, 129, 130, 143, 142, 350, 351, 364, 363
121, 131, 132, 145, 144, 352, 353, 366, 365
122, 132, 133, 146, 145, 353, 354, 367, 366
123, 133, 134, 147, 146, 354, 355, 368, 367
124, 134, 135, 148, 147, 355, 356, 369, 368
125, 135, 136, 149, 148, 356, 357, 370, 369
126, 136, 137, 150, 149, 357, 358, 371, 370
127, 137, 138, 151, 150, 358, 359, 372, 371
128, 138, 139, 152, 151, 359, 360, 373, 372
129, 139, 140, 153, 152, 360, 361, 374, 373
130, 140, 141, 154, 153, 361, 362, 375, 374
131, 141, 142, 155, 154, 362, 363, 376, 375
132, 142, 143, 156, 155, 363, 364, 377, 376
133, 144, 145, 158, 157, 365, 366, 379, 378
134, 145, 146, 159, 158, 366, 367, 380, 379
135, 146, 147, 160, 159, 367, 368, 381, 380
136, 147, 148, 161, 160, 368, 369, 382, 381
137, 148, 149, 162, 161, 369, 370, 383, 382
138, 149, 150, 163, 162, 370, 371, 384, 383
139, 150, 151, 164, 163, 371, 372, 385, 384
140, 151, 152, 165, 164, 372, 373, 386, 385
141, 152, 153, 166, 165, 373, 374, 387, 386
142, 153, 154, 167, 166, 374, 375, 388, 387
143, 154, 155, 168, 167, 375, 376, 389, 388
144, 155, 156, 169, 168, 376, 377, 390, 389
145, 157, 158, 171, 170, 378, 379, 392, 391
146, 158, 159, 172, 171, 379, 380, 393, 392
147, 159, 160, 173, 172, 380, 381, 394, 393
148, 160, 161, 174, 173, 381, 382, 395, 394
149, 161, 162, 175, 174, 382, 383, 396, 395
150, 162, 163, 176, 175, 383, 384, 397, 396
151, 163, 164, 177, 176, 384, 385, 398, 397
152, 164, 165, 178, 177, 385, 386, 399, 398
153, 165, 166, 179, 178, 386, 387, 400, 399
154, 166, 167, 180, 179, 387, 388, 401, 400
155, 167, 168, 181, 180, 388, 389, 402, 401
156, 168, 169, 182, 181, 389, 390, 403, 402
157, 170, 171, 184, 183, 391, 392, 405, 404
158, 171, 172, 185, 184, 392, 393, 406, 405
159, 172, 173, 186, 185, 393, 394, 407, 406
160, 173, 174, 187, 186, 394, 395, 408, 407
161, 174, 175, 188, 187, 395, 396, 409, 408
162, 175, 176, 189, 188, 396, 397, 410, 409
163, 176, 177, 190, 189, 397, 398, 411, 410
164, 177, 178, 191, 190, 398, 399, 412, 411
165, 178, 179, 192, 191, 399, 400, 413, 412
166, 179, 180, 193, 192, 400, 401, 414, 413
167, 180, 181, 194, 193, 401, 402, 415, 414
168, 181, 182, 195, 194, 402, 403, 416, 415
169, 183, 184, 197, 196, 404, 405, 418, 417
170, 184, 185, 198, 197, 405, 406, 419, 418
171, 185, 186, 199, 198, 406, 407, 420, 419
172, 186, 187, 200, 199, 407, 408, 421, 420
173, 187, 188, 201, 200, 408, 409, 422, 421
174, 188, 189, 202, 201, 409, 410, 423, 422
175, 189, 190, 203, 202, 410, 411, 424, 423
176, 190, 191, 204, 203, 411, 412, 425, 424
177, 191, 192, 205, 204, 412, 413, 426, 425
178, 192, 193, 206, 205, 413, 414, 427, 426
179, 193, 194, 207, 206, 414, 415, 428, 427
180, 194, 195, 208, 207, 415, 416, 429, 428
181, 196, 197, 210, 209, 417, 418, 431, 430
182, 197, 198, 211, 210, 418, 419, 432, 431
183, 198, 199, 212, 211, 419, 420, 433, 432
184, 199, 200, 213, 212, 420, 421, 434, 433
185, 200, 201, 214, 213, 421, 422, 435, 434
186, 201, 202, 215, 214, 422, 423, 436, 435
187, 202, 203, 216, 215, 423, 424, 437, 436
188, 203, 204, 217, 216, 424, 425, 438, 437
189, 204, 205, 218, 217, 425, 426, 439, 438
190, 205, 206, 219, 218, 426, 427, 440, 439
191, 206, 207, 220, 219, 427, 428, 441, 440
192, 207, 208, 221, 220, 428, 429, 442, 441
193, 222, 223, 236, 235, 443, 444, 457, 456
194, 223, 224, 237, 236, 444, 445, 458, 457
195, 224, 225, 238, 237, 445, 446, 459, 458
196, 225, 226, 239, 238, 446, 447, 460, 459
197, 226, 227, 240, 239, 447, 448, 461, 460
198, 227, 228, 241, 240, 448, 449, 462, 461
199, 228, 229, 242, 241, 449, 450, 463, 462
200, 229, 230, 243, 242, 450, 451, 464, 463
201, 230, 231, 244, 243, 451, 452, 465, 464
202, 231, 232, 245, 244, 452, 453, 466, 465
203, 232, 233, 246, 245, 453, 454, 467, 466
204, 233, 234, 247, 246, 454, 455, 468, 467
205, 235, 236, 249, 248, 456, 457, 470, 469
206, 236, 237, 250, 249, 457, 458, 471, 470
207, 237, 238, 251, 250, 458, 459, 472, 471
208, 238, 239, 252, 251, 459, 460, 473, 472
209, 239, 240, 253, 252, 460, 461, 474, 473
210, 240, 241, 254, 253, 461, 462, 475, 474
211, 241, 242, 255, 254, 462, 463, 476, 475
212, 242, 243, 256, 255, 463, 464, 477, 476
213, 243, 244, 257, 256, 464, 465, 478, 477
214, 244, 245, 258, 257, 465, 466, 479, 478
215, 245, 246, 259, 258, 466, 467, 480, 479
216, 246, 247, 260, 259, 467, 468, 481, 480
217, 248, 249, 262, 261, 469, 470, 483, 482
218, 249, 250, 263, 262, 470, 471, 484, 483
219, 250, 251, 264, 263, 471, 472, 485, 484
220, 251, 252, 265, 264, 472, 473, 486, 485
221, 252, 253, 266, 265, 473, 474, 487, 486
222, 253, 254, 267, 266, 474, 475, 488, 487
223, 254, 255, 268, 267, 475, 476, 489, 488
224, 255, 256, 269, 268, 476, 477, 490, 489
225, 256, 257, 270, 269, 477, 478, 491, 490
226, 257, 258, 271, 270, 478, 479, 492, 491
227, 258, 259, 272, 271, 479, 480, 493, 492
228, 259, 260, 273, 272, 480, 481, 494, 493
229, 261, 262, 275, 274, 482, 483, 496, 495
230, 262, 263, 276, 275, 483, 484, 497, 496
231, 263, 264, 277, 276, 484, 485, 498, 497
232, 264, 265, 278, 277, 485, 486, 499, 498
233, 265, 266, 279, 278, 486, 487, 500, 499
234, 266, 267, 280, 279, 487, 488, 501, 500
235, 267, 268, 281, 280, 488, 489, 502, 501
236, 268, 269, 282, 281, 489, 490, 503, 502
237, 269, 270, 283, 282, 490, 491, 504, 503
238, 270, 271, 284, 283, 491, 492, 505, 504
239, 271, 272, 285, 284, 492, 493, 506, 505
240, 272, 273, 286, 285, 493, 494, 507, 506
241, 274, 275, 288, 287, 495, 496, 509, 508
242, 275, 276, 289, 288, 496, 497, 510, 509
243, 276, 277, 290, 289, 497, 498, 511, 510
244, 277, 278, 291, 290, 498, 499, 512, 511
245, 278, 279, 292, 291, 499, 500, 513, 512
246, 279, 280, 293, 292, 500, 501, 514, 513
247, 280, 281, 294, 293, 501, 502, 515, 514
248, 281, 282, 295, 294, 502, 503, 516, 515
249, 282, 283, 296, 295, 503, 504, 517, 516
250, 283, 284, 297, 296, 504, 505, 518, 517
251, 284, 285, 298, 297, 505, 506, 519, 518
252, 285, 286, 299, 298, 506, 507, 520, 519
253, 287, 288, 301, 300, 508, 509, 522, 521
254, 288, 289, 302, 301, 509, 510, 523, 522
255, 289, 290, 303, 302, 510, 511, 524, 523
256, 290, 291, 304, 303, 511, 512, 525, 524
257, 291, 292, 305, 304, 512, 513, 526, 525
258, 292, 293, 306, 305, 513, 514, 527, 526
259, 293, 294, 307, 306, 514, 515, 528, 527
260, 294, 295, 308, 307, 515, 516, 529, 528
261, 295, 296, 309, 308, 516, 517, 530, 529
262, 296, 297, 310, 309, 517, 518, 531, 530
263, 297, 298, 311, 310, 518, 519, 532, 531
264, 298, 299, 312, 311, 519, 520, 533, 532
265, 300, 301, 314, 313, 521, 522, 535, 534
266, 301, 302, 315, 314, 522, 523, 536, 535
267, 302, 303, 316, 315, 523, 524, 537, 536
268, 303, 304, 317, 316, 524, 525, 538, 537
269, 304, 305, 318, 317, 525, 526, 539, 538
270, 305, 306, 319, 318, 526, 527, 540, 539
271, 306, 307, 320, 319, 527, 528, 541, 540
272, 307, 308, 321, 320, 528, 529, 542, 541
273, 308, 309, 322, 321, 529, 530, 543, 542
274, 309, 310, 323, 322, 530, 531, 544, 543
275, 310, 311, 324, 323, 531, 532, 545, 544
276, 311, 312, 325, 324, 532, 533, 546, 545
277, 313, 314, 327, 326, 534, 535, 548, 547
278, 314, 315, 328, 327, 535, 536, 549, 548
279, 315, 316, 329, 328, 536, 537, 550, 549
280, 316, 317, 330, 329, 537, 538, 551, 550
281, 317, 318, 331, 330, 538, 539, 552, 551
282, 318, 319, 332, 331, 539, 540, 553, 552
283, 319, 320, 333, 332, 540, 541, 554, 553
284, 320, 321, 334, 333, 541, 542, 555, 554
285, 321, 322, 335, 334, 542, 543, 556, 555
286, 322, 323, 336, 335, 543, 544, 557, 556
287, 323, 324, 337, 336, 544, 545, 558, 557
288, 324, 325, 338, 337, 545, 546, 559, 558
289, 326, 327, 340, 339, 547, 548, 561, 560
290, 327, 328, 341, 340, 548, 549, 562, 561
291, 328, 329, 342, 341, 549, 550, 563, 562
292, 329, 330, 343, 342, 550, 551, 564, 563
293, 330, 331, 344, 343, 551, 552, 565, 564
294, 331, 332, 345, 344, 552, 553, 566, 565
295, 332, 333, 346, 345, 553, 554, 567, 566
296, 333, 334, 347, 346, 554, 555, 568, 567
297, 334, 335, 348, 347, 555, 556, 569, 568
298, 335, 336, 349, 348, 556, 557, 570, 569
299, 336, 337, 350, 349, 557, 558, 571, 570
300, 337, 338, 351, 350, 558, 559, 572, 571
301, 339, 340, 353, 352, 560, 561, 574, 573
302, 340, 341, 354, 353, 561, 562, 575, 574
303, 341, 342, 355, 354, 562, 563, 576, 575
304, 342, 343, 356, 355, 563, 564, 577, 576
305, 343, 344, 357, 356, 564, 565, 578, 577
306, 344, 345, 358, 357, 565, 566, 579, 578
307, 345, 346, 359, 358, 566, 567, 580, 579
308, 346, 347, 360, 359, 567, 568, 581, 580
309, 347, 348, 361, 360, 568, 569, 582, 581
310, 348, 349, 362, 361, 569, 570, 583, 582
311, 349, 350, 363, 362, 570, 571, 584, 583
312, 350, 351, 364, 363, 571, 572, 585, 584
313, 352, 353, 366, 365, 573, 574, 587, 586
314, 353, 354, 367, 366, 574, 575, 588, 587
315, 354, 355, 368, 367, 575, 576, 589, 588
316, 355, 356, 369, 368, 576, 577, 590, 589
317, 356, 357, 370, 369, 577, 578, 591, 590
318, 357, 358, 371, 370, 578, 579, 592, 591
319, 358, 359, 372, 371, 579, 580, 593, 592
320, 359, 360, 373, 372, 580, 581, 594, 593
321, 360, 361, 374, 373, 581, 582, 595, 594
322, 361, 362, 375, 374, 582, 583, 596, 595
323, 362, 363, 376, 375, 583, 584, 597, 596
324, 363, 364, 377, 376, 584, 585, 598, 597
325, 365, 366, 379, 378, 586, 587, 600, 599
326, 366, 367, 380, 379, 587, 588, 601, 600
327, 367, 368, 381, 380, 588, 589, 602, 601
328, 368, 369, 382, 381, 589, 590, 603, 602
329, 369, 370, 383, 382, 590, 591, 604, 603
330, 370, 371, 384, 383, 591, 592, 605, 604
331, 371, 372, 385, 384, 592, 593, 606, 605
332, 372, 373, 386, 385, 593, 594, 607, 606
333, 373, 374, 387, 386, 594, 595, 608, 607
334, 374, 375, 388, 387, 595, 596, 609, 608
335, 375, 376, 389, 388, 596, 597, 610, 609
336, 376, 377, 390, 389, 597, 598, 611, 610
337, 378, 379, 392, 391, 599, 600, 613, 612
338, 379, 380, 393, 392, 600, 601, 614, 613
339, 380, 381, 394, 393, 601, 602, 615, 614
340, 381, 382, 395, 394, 602, 603, 616, 615
341, 382, 383, 396, 395, 603, 604, 617, 616
342, 383, 384, 397, 396, 604, 605, 618, 617
343, 384, 385, 398, 397, 605, 606, 619, 618
344, 385, 386, 399, 398, 606, 607, 620, 619
345, 386, 387, 400, 399, 607, 608, 621, 620
346, 387, 388, 401, 400, 608, 609, 622, 621
347, 388, 389, 402, 401, 609, 610, 623, 622
348, 389, 390, 403, 402, 610, 611, 624, 623
349, 391, 392, 405, 404, 612, 613, 626, 625
350, 392, 393, 406, 405, 613, 614, 627, 626
351, 393, 394, 407, 406, 614, 615, 628, 627
352, 394, 395, 408, 407, 615, 616, 629, 628
353, 395, 396, 409, 408, 616, 617, 630, 629
354, 396, 397, 410, 409, 617, 618, 631, 630
355, 397, 398, 411, 410, 618, 619, 632, 631
356, 398, 399, 412, 411, 619, 620, 633, 632
357, 399, 400, 413, 412, 620, 621, 634, 633
358, 400, 401, 414, 413, 621, 622, 635, 634
359, 401, 402, 415, 414, 622, 623, 636, 635
360, 402, 403, 416, 415, 623, 624, 637, 636
361, 404, 405, 418, 417, 625, 626, 639, 638
362, 405, 406, 419, 418, 626, 627, 640, 639
363, 406, 407, 420, 419, 627, 628, 641, 640
364, 407, 408, 421, 420, 628, 629, 642, 641
365, 408, 409, 422, 421, 629, 630, 643, 642
366, 409, 410, 423, 422, 630, 631, 644, 643
367, 410, 411, 424, 423, 631, 632, 645, 644
368, 411, 412, 425, 424, 632, 633, 646, 645
369, 412, 413, 426, 425, 633, 634, 647, 646
370, 413, 414, 427, 426, 634, 635, 648, 647
371, 414, 415, 428, 427, 635, 636, 649, 648
372, 415, 416, 429, 428, 636, 637, 650, 649
373, 417, 418, 431, 430, 638, 639, 652, 651
374, 418, 419, 432, 431, 639, 640, 653, 652
375, 419, 420, 433, 432, 640, 641, 654, 653
376, 420, 421, 434, 433, 641, 642, 655, 654
377, 421, 422, 435, 434, 642, 643, 656, 655
378, 422, 423, 436, 435, 643, 644, 657, 656
379, 423, 424, 437, 436, 644, 645, 658, 657
380, 424, 425, 438, 437, 645, 646, 659, 658
381, 425, 426, 439, 438, 646, 647, 660, 659
382, 426, 427, 440, 439, 647, 648, 661, 660
383, 427, 428, 441, 440, 648, 649, 662, 661
384, 428, 429, 442, 441, 649, 650, 663, 662
385, 443, 444, 457, 456, 664, 665, 678, 677
386, 444, 445, 458, 457, 665, 666, 679, 678
387, 445, 446, 459, 458, 666, 667, 680, 679
388, 446, 447, 460, 459, 667, 668, 681, 680
389, 447, 448, 461, 460, 668, 669, 682, 681
390, 448, 449, 462, 461, 669, 670, 683, 682
391, 449, 450, 463, 462, 670, 671, 684, 683
392, 450, 451, 464, 463, 671, 672, 685, 684
393, 451, 452, 465, 464, 672, 673, 686, 685
394, 452, 453, 466, 465, 673, 674, 687, 686
395, 453, 454, 467, 466, 674, 675, 688, 687
396, 454, 455, 468, 467, 675, 676, 689, 688
397, 456, 457, 470, 469, 677, 678, 691, 690
398, 457, 458, 471, 470, 678, 679, 692, 691
399, 458, 459, 472, 471, 679, 680, 693, 692
400, 459, 460, 473, 472, 680, 681, 694, 693
401, 460, 461, 474, 473, 681, 682, 695, 694
402, 461, 462, 475, 474, 682, 683, 696, 695
403, 462, 463, 476, 475, 683, 684, 697, 696
404, 463, 464, 477, 476, 684, 685, 698, 697
405, 464, 465, 478, 477, 685, 686, 699, 698
406, 465, 466, 479, 478, 686, 687, 700, 699
407, 466, 467, 480, 479, 687, 688, 701, 700
408, 467, 468, 481, 480, 688, 689, 702, 701
409, 469, 470, 483, 482, 690, 691, 704, 703
410, 470, 471, 484, 483, 691, 692, 705, 704
411, 471, 472, 485, 484, 692, 693, 706, 705
412, 472, 473, 486, 485, 693, 694, 707, 706
413, 473, 474, 487, 486, 694, 695, 708, 707
414, 474, 475, 488, 487, 695, 696, 709, 708
415, 475, 476, 489, 488, 696, 697, 710, 709
416, 476, 477, 490, 489, 697, 698, 711, 710
417, 477, 478, 491, 490, 698, 699, 712, 711
418, 478, 479, 492, 491, 699, 700, 713, 712
419, 479, 480, 493, 492, 700, 701, 714, 713
420, 480, 481, 494, 493, 701, 702, 715, 714
421, 482, 483, 496, 495, 703, 704, 717, 716
422, 483, 484, 497, 496, 704, 705, 718, 717
423, 484, 485, 498, 497, 705, 706, 719, 718
424, 485, 486, 499, 498, 706, 707, 720, 719
425, 486, 487, 500, 499, 707, 708, 721, 720
426, 487, 488, 501, 500, 708, 709, 722, 721
427, 488, 489, 502, 501, 709, 710, 723, 722
428, 489, 490, 503, 502, 710, 711, 724, 723
429, 490, 491, 504, 503, 711, 712, 725, 724
430, 491, 492, 505, 504, 712, 713, 726, 725
431, 492, 493, 506, 505, 713, 714, 727, 726
432, 493, 494, 507, 506, 714, 715, 728, 727
433, 495, 496, 509, 508, 716, 717, 730, 729
434, 496, 497, 510, 509, 717, 718, 731, 730
435, 497, 498, 511, 510, 718, 719, 732, 731
436, 498, 499, 512, 511, 719, 720, 733, 732
437, 499, 500, 513, 512, 720, 721, 734, 733
438, 500, 501, 514, 513, 721, 722, 735, 734
439, 501, 502, 515, 514, 722, 723, 736, 735
440, 502, 503, 516, 515, 723, 724, 737, 736
441, 503, 504, 517, 516, 724, 725, 738, 737
442, 504, 505, 518, 517, 725, 726, 739, 738
443, 505, 506, 519, 518, 726, 727, 740, 739
444, 506, 507, 520, 519, 727, 728, 741, 740
445, 508, 509, 522, 521, 729, 730, 743, 742
446, 509, 510, 523, 522, 730, 731, 744, 743
447, 510, 511, 524, 523, 731, 732, 745, 744
448, 511, 512, 525, 524, 732, 733, 746, 745
449, 512, 513, 526, 525, 733, 734, 747, 746
450, 513, 514, 527, 526, 734, 735, 748, 747
451, 514, 515, 528, 527, 735, 736, 749, 748
452, 515, 516, 529, 528, 736, 737, 750, 749
453, 516, 517, 530, 529, 737, 738, 751, 750
454, 517, 518, 531, 530, 738, 739, 752, 751
455, 518, 519, 532, 531, 739, 740, 753, 752
456, 519, 520, 533, 532, 740, 741, 754, 753
457, 521, 522, 535, 534, 742, 743, 756, 755
458, 522, 523, 536, 535, 743, 744, 757, 756
459, 523, 524, 537, 536, 744, 745, 758, 757
460, 524, 525, 538, 537, 745, 746, 759, 758
461, 525, 526, 539, 538, 746, 747, 760, 759
462, 526, 527, 540, 539, 747, 748, 761, 760
463, 527, 528, 541, 540, 748, 749, 762, 761
464, 528, 529, 542, 541, 749, 750, 763, 762
465, 529, 530, 543, 542, 750, 751, 764, 763
466, 530, 531, 544, 543, 751, 752, 765, 764
467, 531, 532, 545, 544, 752, 753, 766, 765
468, 532, 533, 546, 545, 753, 754, 767, 766
469, 534, 535, 548, 547, 755, 756, 769, 768
470, 535, 536, 549, 548, 756, 757, 770, 769
471, 536, 537, 550, 549, 757, 758, 771, 770
472, 537, 538, 551, 550, 758, 759, 772, 771
473, 538, 539, 552, 551, 759, 760, 773, 772
474, 539, 540, 553, 552, 760, 761, 774, 773
475, 540, 541, 554, 553, 761, 762, 775, 774
476, 541, 542, 555, 554, 762, 763, 776, 775
477, 542, 543, 556, 555, 763, 764, 777, 776
478, 543, 544, 557, 556, 764, 765, 778, 777
479, 544, 545, 558, 557, 765, 766, 779, 778
480, 545, 546, 559, 558, 766, 767, 780, 779
481, 547, 548, 561, 560, 768, 769, 782, 781
482, 548, 549, 562, 561, 769, 770, 783, 782
483, 549, 550, 563, 562, 770, 771, 784, 783
484, 550, 551, 564, 563, 771, 772, 785, 784
485, 551, 552, 565, 564, 772, 773, 786, 785
486, 552, 553, 566, 565, 773, 774, 787, 786
487, 553, 554, 567, 566, 774, 775, 788, 787
488, 554, 555, 568, 567, 775, 776, 789, 788
489, 555, 556, 569, 568, 776, 777, 790, 789
490, 556, 557, 570, 569, 777, 778, 791, 790
491, 557, 558, 571, 570, 778, 779, 792, 791
492, 558, 559, 572, 571, 779, 780, 793, 792
493, 560, 561, 574, 573, 781, 782, 795, 794
494, 561, 562, 575, 574, 782, 783, 796, 795
495, 562, 563, 576, 575, 783, 784, 797, 796
496, 563, 564, 577, 576, 784, 785, 798, 797
497, 564, 565, 578, 577, 785, 786, 799, 798
498, 565, 566, 579, 578, 786, 787, 800, 799
499, 566, 567, 580, 579, 787, 788, 801, 800
500, 567, 568, 581, 580, 788, 789, 802, 801
501, 568, 569, 582, 581, 789, 790, 803, 802
502, 569, 570, 583, 582, 790, 791, 804, 803
503, 570, 571, 584, 583, 791, 792, 805, 804
504, 571, 572, 585, 584, 792, 793, 806, 805
505, 573, 574, 587, 586, 794, 795, 808, 807
506, 574, 575, 588, 587, 795, 796, 809, 808
507, 575, 576, 589, 588, 796, 797, 810, 809
508, 576, 577, 590, 589, 797, 798, 811, 810
509, 577, 578, 591, 590, 798, 799, 812, 811
510, 578, 579, 592, 591, 799, 800, 813, 812
511, 579, 580, 593, 592, 800, 801, 814, 813
512, 580, 581, 594, 593, 801, 802, 815, 814
513, 581, 582, 595, 594, 802, 803, 816, 815
514, 582, 583, 596, 595, 803, 804, 817, 816
515, 583, 584, 597, 596, 804, 805, 818, 817
516, 584, 585, 598, 597, 805, 806, 819, 818
517, 586, 587, 600, 599, 807, 808, 821, 820
518, 587, 588, 601, 600, 808, 809, 822, 821
519, 588, 589, 602, 601, 809, 810, 823, 822
520, 589, 590, 603, 602, 810, 811, 824, 823
521, 590, 591, 604, 603, 811, 812, 825, 824
522, 591, 592, 605, 604, 812, 813, 826, 825
523, 592, 593, 606, 605, 813, 814, 827, 826
524, 593, 594, 607, 606, 814, 815, 828, 827
525, 594, 595, 608, 607, 815, 816, 829, 828
526, 595, 596, 609, 608, 816, 817, 830, 829
527, 596, 597, 610, 609, 817, 818, 831, 830
528, 597, 598, 611, 610, 818, 819, 832, 831
529, 599, 600, 613, 612, 820, 821, 834, 833
530, 600, 601, 614, 613, 821, 822, 835, 834
531, 601, 602, 615, 614, 822, 823, 836, 835
532, 602, 603, 616, 615, 823, 824, 837, 836
533, 603, 604, 617, 616, 824, 825, 838, 837
534, 604, 605, 618, 617, 825, 826, 839, 838
535, 605, 606, 619, 618, 826, 827, 840, 839
536, 606, 607, 620, 619, 827, 828, 841, 840
537, 607, 608, 621, 620, 828, 829, 842, 841
538, 608, 609, 622, 621, 829, 830, 843, 842
539, 609, 610, 623, 622, 830, 831, 844, 843
540, 610, 611, 624, 623, 831, 832, 845, 844
541, 612, 613, 626, 625, 833, 834, 847, 846
542, 613, 614, 627, 626, 834, 835, 848, 847
543, 614, 615, 628, 627, 835, 836, 849, 848
544, 615, 616, 629, 628, 836, 837, 850, 849
545, 616, 617, 630, 629, 837, 838, 851, 850
546, 617, 618, 631, 630, 838, 839, 852, 851
547, 618, 619, 632, 631, 839, 840, 853, 852
548, 619, 620, 633, 632, 840, 841, 854, 853
549, 620, 621, 634, 633, 841, 842, 855, 854
550, 621, 622, 635, 634, 842, 843, 856, 855
551, 622, 623, 636, 635, 843, 844, 857, 856
552, 623, 624, 637, 636, 844, 845, 858, 857
553, 625, 626, 639, 638, 846, 847, 860, 859
554, 626, 627, 640, 639, 847, 848, 861, 860
555, 627, 628, 641, 640, 848, 849, 862, 861
556, 628, 629, 642, 641, 849, 850, 863, 862
557, 629, 630, 643, 642, 850, 851, 864, 863
558, 630, 631, 644, 643, 851, 852, 865, 864
559, 631, 632, 645, 644, 852, 853, 866, 865
560, 632, 633, 646, 645, 853, 854, 867, 866
561, 633, 634, 647, 646, 854, 855, 868, 867
562, 634, 635, 648, 647, 855, 856, 869, 868
563, 635, 636, 649, 648, 856, 857, 870, 869
564, 636, 637, 650, 649, 857, 858, 871, 870
565, 638, 639, 652, 651, 859, 860, 873, 872
566, 639, 640, 653, 652, 860, 861, 874, 873
567, 640, 641, 654, 653, 861, 862, 875, 874
568, 641, 642, 655, 654, 862, 863, 876, 875
569, 642, 643, 656, 655, 863, 864, 877, 876
570, 643, 644, 657, 656, 864, 865, 878, 877
571, 644, 645, 658, 657, 865, 866, 879, 878
572, 645, 646, 659, 658, 866, 867, 880, 879
573, 646, 647, 660, 659, 867, 868, 881, 880
574, 647, 648, 661, 660, 868, 869, 882, 881
575, 648, 649, 662, 661, 869, 870, 883, 882
576, 649, 650, 663, 662, 870, 871, 884, 883
577, 664, 665, 678, 677, 885, 886, 899, 898
578, 665, 666, 679, 678, 886, 887, 900, 899
579, 666, 667, 680, 679, 887, 888, 901, 900
580, 667, 668, 681, 680, 888, 889, 902, 901
581, 668, 669, 682, 681, 889, 890, 903, 902
582, 669, 670, 683, 682, 890, 891, 904, 903
583, 670, 671, 684, 683, 891, 892, 905, 904
584, 671, 672, 685, 684, 892, 893, 906, 905
585, 672, 673, 686, 685, 893, 894, 907, 906
586, 673, 674, 687, 686, 894, 895, 908, 907
587, 674, 675, 688, 687, 895, 896, 909, 908
588, 675, 676, 689, 688, 896, 897, 910, 909
589, 677, 678, 691, 690, 898, 899, 912, 911
590, 678, 679, 692, 691, 899, 900, 913, 912
591, 679, 680, 693, 692, 900, 901, 914, 913
592, 680, 681, 694, 693, 901, 902, 915, 914
593, 681, 682, 695, 694, 902, 903, 916, 915
594, 682, 683, 696, 695, 903, 904, 917, 916
595, 683, 684, 697, 696, 904, 905, 918, 917
596, 684, 685, 698, 697, 905, 906, 919, 918
597, 685, 686, 699, 698, 906, 907, 920, 919
598, 686, 687, 700, 699, 907, 908, 921, 920
599, 687, 688, 701, 700, 908, 909, 922, 921
600, 688, 689, 702, 701, 909, 910, 923, 922
601, 690, 691, 704, 703, 911, 912, 925, 924
602, 691, 692, 705, 704, 912, 913, 926, 925
603, 692, 693, 706, 705, 913, 914, 927, 926
604, 693, 694, 707, 706, 914, 915, 928, 927
605, 694, 695, 708, 707, 915, 916, 929, 928
606, 695, 696, 709, 708, 916, 917, 930, 929
607, 696, 697, 710, 709, 917, 918, 931, 930
608, 697, 698, 711, 710, 918, 919, 932, 931
609, 698, 699, 712, 711, 919, 920, 933, 932
610, 699, 700, 713, 712, 920, 921, 934, 933
611, 700, 701, 714, 713, 921, 922, 935, 934
612, 701, 702, 715, 714, 922, 923, 936, 935
613, 703, 704, 717, 716, 924, 925, 938, 937
614, 704, 705, 718, 717, 925, 926, 939, 938
615, 705, 706, 719, 718, 926, 927, 940, 939
616, 706, 707, 720, 719, 927, 928, 941, 940
617, 707, 708, 721, 720, 928, 929, 942, 941
618, 708, 709, 722, 721, 929, 930, 943, 942
619, 709, 710, 723, 722, 930, 931, 944, 943
620, 710, 711, 724, 723, 931, 932, 945, 944
621, 711, 712, 725, 724, 932, 933, 946, 945
622, 712, 713, 726, 725, 933, 934, 947, 946
623, 713, 714, 727, 726, 934, 935, 948, 947
624, 714, 715, 728, 727, 935, 936, 949, 948
625, 716, 717, 730, 729, 937, 938, 951, 950
626, 717, 718, 731, 730, 938, 939, 952, 951
627, 718, 719, 732, 731, 939, 940, 953, 952
628, 719, 720, 733, 732, 940, 941, 954, 953
629, 720, 721, 734, 733, 941, 942, 955, 954
630, 721, 722, 735, 734, 942, 943, 956, 955
631, 722, 723, 736, 735, 943, 944, 957, 956
632, 723, 724, 737, 736, 944, 945, 958, 957
633, 724, 725, 738, 737, 945, 946, 959, 958
634, 725, 726, 739, 738, 946, 947, 960, 959
635, 726, 727, 740, 739, 947, 948, 961, 960
636, 727, 728, 741, 740, 948, 949, 962, 961
637, 729, 730, 743, 742, 950, 951, 964, 963
638, 730, 731, 744, 743, 951, 952, 965, 964
639, 731, 732, 745, 744, 952, 953, 966, 965
640, 732, 733, 746, 745, 953, 954, 967, 966
641, 733, 734, 747, 746, 954, 955, 968, 967
642, 734, 735, 748, 747, 955, 956, 969, 968
643, 735, 736, 749, 748, 956, 957, 970, 969
644, 736, 737, 750, 749, 957, 958, 971, 970
645, 737, 738, 751, 750, 958, 959, 972, 971
646, 738, 739, 752, 751, 959, 960, 973, 972
647, 739, 740, 753, 752, 960, 961, 974, 973
648, 740, 741, 754, 753, 961, 962, 975, 974
649, 742, 743, 756, 755, 963, 964, 977, 976
650, 743, 744, 757, 756, 964, 965, 978, 977
651, 744, 745, 758, 757, 965, 966, 979, 978
652, 745, 746, 759, 758, 966, 967, 980, 979
653, 746, 747, 760, 759, 967, 968, 981, 980
654, 747, 748, 761, 760, 968, 969, 982, 981
655, 748, 749, 762, 761, 969, 970, 983, 982
656, 749, 750, 763, 762, 970, 971, 984, 983
657, 750, 751, 764, 763, 971, 972, 985, 984
658, 751, 752, 765, 764, 972, 973, 986, 985
659, 752, 753, 766, 765, 973, 974, 987, 986
660, 753, 754, 767, 766, 974, 975, 988, 987
661, 755, 756, 769, 768, 976, 977, 990, 989
662, 756, 757, 770, 769, 977, 978, 991, 990
663, 757, 758, 771, 770, 978, 979, 992, 991
664, 758, 759, 772, 771, 979, 980, 993, 992
665, 759, 760, 773, 772, 980, 981, 994, 993
666, 760, 761, 774, 773, 981, 982, 995, 994
667, 761, 762, 775, 774, 982, 983, 996, 995
668, 762, 763, 776, 775, 983, 984, 997, 996
669, 763, 764, 777, 776, 984, 985, 998, 997
670, 764, 765, 778, 777, 985, 986, 999, 998
671, 765, 766, 779, 778, 986, 987, 1000, 999
672, 766, 767, 780, 779, 987, 988, 1001, 1000
673, 768, 769, 782, 781, 989, 990, 1003, 1002
674, 769, 770, 783, 782, 990, 991, 1004, 1003
675, 770, 771, 784, 783, 991, 992, 1005, 1004
676, 771, 772, 785, 784, 992, 993, 1006, 1005
677, 772, 773, 786, 785, 993, 994, 1007, 1006
678, 773, 774, 787, 786, 994, 995, 1008, 1007
679, 774, 775, 788, 787, 995, 996, 1009, 1008
680, 775, 776, 789, 788, 996, 997, 1010, 1009
681, 776, 777, 790, 789, 997, 998, 1011, 1010
682, 777, 778, 791, 790, 998, 999, 1012, 1011
683, 778, 779, 792, 791, 999, 1000, 1013, 1012
684, 779, 780, 793, 792, 1000, 1001, 1014, 1013
685, 781, 782, 795, 794, 1002, 1003, 1016, 1015
686, 782, 783, 796, 795, 1003, 1004, 1017, 1016
687, 783, 784, 797, 796, 1004, 1005, 1018, 1017
688, 784, 785, 798, 797, 1005, 1006, 1019, 1018
689, 785, 786, 799, 798, 1006, 1007, 1020, 1019
690, 786, 787, 800, 799, 1007, 1008, 1021, 1020
691, 787, 788, 801, 800, 1008, 1009, 1022, 1021
692, 788, 789, 802, 801, 1009, 1010, 1023, 1022
693, 789, 790, 803, 802, 1010, 1011, 1024, 1023
694, 790, 791, 804, 803, 1011, 1012, 1025, 1024
695, 791, 792, 805, 804, 1012, 1013, 1026, 1025
696, 792, 793, 806, 805, 1013, 1014, 1027, 1026
697, 794, 795, 808, 807, 1015, 1016, 1029, 1028
698, 795, 796, 809, 808, 1016, 1017, 1030, 1029
699, 796, 797, 810, 809, 1017, 1018, 1031, 1030
700, 797, 798, 811, 810, 1018, 1019, 1032, 1031
701, 798, 799, 812, 811, 1019, 1020, 1033, 1032
702, 799, 800, 813, 812, 1020, 1021, 1034, 1033
703, 800, 801, 814, 813, 1021, 1022, 1035, 1034
704, 801, 802, 815, 814, 1022, 1023, 1036, 1035
705, 802, 803, 816, 815, 1023, 1024, 1037, 1036
706, 803, 804, 817, 816, 1024, 1025, 1038, 1037
707, 804, 805, 818, 817, 1025, 1026, 1039, 1038
708, 805, 806, 819, 818, 1026, 1027, 1040, 1039
709, 807, 808, 821, 820, 1028, 1029, 1042, 1041
710, 808, 809, 822, 821, 1029, 1030, 1043, 1042
711, 809, 810, 823, 822, 1030, 1031, 1044, 1043
712, 810, 811, 824, 823, 1031, 1032, 1045, 1044
713, 811, 812, 825, 824, 1032, 1033, 1046, 1045
714, 812, 813, 826, 825, 1033, 1034, 1047, 1046
715, 813, 814, 827, 826, 1034, 1035, 1048, 1047
716, 814, 815, 828, 827, 1035, 1036, 1049, 1048
717, 815, 816, 829, 828, 1036, 1037, 1050, 1049
718, 816, 817, 830, 829, 1037, 1038, 1051, 1050
719, 817, 818, 831, 830, 1038, 1039, 1052, 1051
720, 818, 819, 832, 831, 1039, 1040, 1053, 1052
721, 820, 821, 834, 833, 1041, 1042, 1055, 1054
722, 821, 822, 835, 834, 1042, 1043, 1056, 1055
723, 822, 823, 836, 835, 1043, 1044, 1057, 1056
724, 823, 824, 837, 836, 1044, 1045, 1058, 1057
725, 824, 825, 838, 837, 1045, 1046, 1059, 1058
726, 825, 826, 839, 838, 1046, 1047, 1060, 1059
727, 826, 827, 840, 839, 1047, 1048, 1061, 1060
728, 827, 828, 841, 840, 1048, 1049, 1062, 1061
729, 828, 829, 842, 841, 1049, 1050, 1063, 1062
730, 829, 830, 843, 842, 1050, 1051, 1064, 1063
731, 830, 831, 844, 843, 1051, 1052, 1065, 1064
732, 831, 832, 845, 844, 1052, 1053, 1066, 1065
733, 833, 834, 847, 846, 1054, 1055, 1068, 1067
734, 834, 835, 848, 847, 1055, 1056, 1069, 1068
735, 835, 836, 849, 848, 1056, 1057, 1070, 1069
736, 836, 837, 850, 849, 1057, 1058, 1071, 1070
737, 837, 838, 851, 850, 1058, 1059, 1072, 1071
738, 838, 839, 852, 851, 1059, 1060, 1073, 1072
739, 839, 840, 853, 852, 1060, 1061, 1074, 1073
740, 840, 841, 854, 853, 1061, 1062, 1075, 1074
741, 841, 842, 855, 854, 1062, 1063, 1076, 1075
742, 842, 843, 856, 855, 1063, 1064, 1077, 1076
743, 843, 844, 857, 856, 1064, 1065, 1078, 1077
744, 844, 845, 858, 857, 1065, 1066, 1079, 1078
745, 846, 847, 860, 859, 1067, 1068, 1081, 1080
746, 847, 848, 861, 860, 1068, 1069, 1082, 1081
747, 848, 849, 862, 861, 1069, 1070, 1083, 1082
748, 849, 850, 863, 862, 1070, 1071, 1084, 1083
749, 850, 851, 864, 863, 1071, 1072, 1085, 1084
750, 851, 852, 865, 864, 1072, 1073, 1086, 1085
751, 852, 853, 866, 865, 1073, 1074, 1087, 1086
752, 853, 854, 867, 866, 1074, 1075, 1088, 1087
753, 854, 855, 868, 867, 1075, 1076, 1089, 1088
754, 855, 856, 869, 868, 1076, 1077, 1090, 1089
755, 856, 857, 870, 869, 1077, 1078, 1091, 1090
756, 857, 858, 871, 870, 1078, 1079, 1092, 1091
757, 859, 860, 873, 872, 1080, 1081, 1094, 1093
758, 860, 861, 874, 873, 1081, 1082, 1095, 1094
759, 861, 862, 875, 874, 1082, 1083, 1096, 1095
760, 862, 863, 876, 875, 1083, 1084, 1097, 1096
761, 863, 864, 877, 876, 1084, 1085, 1098, 1097
762, 864, 865, 878, 877, 1085, 1086, 1099, 1098
763, 865, 866, 879, 878, 1086, 1087, 1100, 1099
764, 866, 867, 880, 879, 1087, 1088, 1101, 1100
765, 867, 868, 881, 880, 1088, 1089, 1102, 1101
766, 868, 869, 882, 881, 1089, 1090, 1103, 1102
767, 869, 870, 883, 882, 1090, 1091, 1104, 1103
768, 870, 871, 884, 883, 1091, 1092, 1105, 1104
769, 885, 886, 899, 898, 1106, 1107, 1120, 1119
770, 886, 887, 900, 899, 1107, 1108, 1121, 1120
771, 887, 888, 901, 900, 1108, 1109, 1122, 1121
772, 888, 889, 902, 901, 1109, 1110, 1123, 1122
773, 889, 890, 903, 902, 1110, 1111, 1124, 1123
774, 890, 891, 904, 903, 1111, 1112, 1125, 1124
775, 891, 892, 905, 904, 1112, 1113, 1126, 1125
776, 892, 893, 906, 905, 1113, 1114, 1127, 1126
777, 893, 894, 907, 906, 1114, 1115, 1128, 1127
778, 894, 895, 908, 907, 1115, 1116, 1129, 1128
779, 895, 896, 909, 908, 1116, 1117, 1130, 1129
780, 896, 897, 910, 909, 1117, 1118, 1131, 1130
781, 898, 899, 912, 911, 1119, 1120, 1133, 1132
782, 899, 900, 913, 912, 1120, 1121, 1134, 1133
783, 900, 901, 914, 913, 1121, 1122, 1135, 1134
784, 901, 902, 915, 914, 1122, 1123, 1136, 1135
785, 902, 903, 916, 915, 1123, 1124, 1137, 1136
786, 903, 904, 917, 916, 1124, 1125, 1138, 1137
787, 904, 905, 918, 917, 1125, 1126, 1139, 1138
788, 905, 906, 919, 918, 1126, 1127, 1140, 1139
789, 906, 907, 920, 919, 1127, 1128, 1141, 1140
790, 907, 908, 921, 920, 1128, 1129, 1142, 1141
791, 908, 909, 922, 921, 1129, 1130, 1143, 1142
792, 909, 910, 923, 922, 1130, 1131, 1144, 1143
793, 911, 912, 925, 924, 1132, 1133, 1146, 1145
794, 912, 913, 926, 925, 1133, 1134, 1147, 1146
795, 913, 914, 927, 926, 1134, 1135, 1148, 1147
796, 914, 915, 928, 927, 1135, 1136, 1149, 1148
797, 915, 916, 929, 928, 1136, 1137, 1150, 1149
798, 916, 917, 930, 929, 1137, 1138, 1151, 1150
799, 917, 918, 931, 930, 1138, 1139, 1152, 1151
800, 918, 919, 932, 931, 1139, 1140, 1153, 1152
801, 919, 920, 933, 932, 1140, 1141, 1154, 1153
802, 920, 921, 934, 933, 1141, 1142, 1155, 1154
803, 921, 922, 935, 934, 1142, 1143, 1156, 1155
804, 922, 923, 936, 935, 1143, 1144, 1157, 1156
805, 924, 925, 938, 937, 1145, 1146, 1159, 1158
806, 925, 926, 939, 938, 1146, 1147, 1160, 1159
807, 926, 927, 940, 939, 1147, 1148, 1161, 1160
808, 927, 928, 941, 940, 1148, 1149, 1162, 1161
809, 928, 929, 942, 941, 1149, 1150, 1163, 1162
810, 929, 930, 943, 942, 1150, 1151, 1164, 1163
811, 930, 931, 944, 943, 1151, 1152, 1165, 1164
812, 931, 932, 945, 944, 1152, 1153, 1166, 1165
813, 932, 933, 946, 945, 1153, 1154, 1167, 1166
814, 933, 934, 947, 946, 1154, 1155, 1168, 1167
815, 934, 935, 948, 947, 1155, 1156, 1169, 1168
816, 935, 936, 949, 948, 1156, 1157, 1170, 1169
817, 937, 938, 951, 950, 1158, 1159, 1172, 1171
818, 938, 939, 952, 951, 1159, 1160, 1173, 1172
819, 939, 940, 953, 952, 1160, 1161, 1174, 1173
820, 940, 941, 954, 953, 1161, 1162, 1175, 1174
821, 941, 942, 955, 954, 1162, 1163, 1176, 1175
822, 942, 943, 956, 955, 1163, 1164, 1177, 1176
823, 943, 944, 957, 956, 1164, 1165, 1178, 1177
824, 944, 945, 958, 957, 1165, 1166, 1179, 1178
825, 945, 946, 959, 958, 1166, 1167, 1180, 1179
826, 946, 947, 960, 959, 1167, 1168, 1181, 1180
827, 947, 948, 961, 960, 1168, 1169, 1182, 1181
828, 948, 949, 962, 961, 1169, 1170, 1183, 1182
829, 950, 951, 964, 963, 1171, 1172, 1185, 1184
830, 951, 952, 965, 964, 1172, 1173, 1186, 1185
831, 952, 953, 966, 965, 1173, 1174, 1187, 1186
832, 953, 954, 967, 966, 1174, 1175, 1188, 1187
833, 954, 955, 968, 967, 1175, 1176, 1189, 1188
834, 955, 956, 969, 968, 1176, 1177, 1190, 1189
835, 956, 957, 970, 969, 1177, 1178, 1191, 1190
836, 957, 958, 971, 970, 1178, 1179, 1192, 1191
837, 958, 959, 972, 971, 1179, 1180, 1193, 1192
838, 959, 960, 973, 972, 1180, 1181, 1194, 1193
839, 960, 961, 974, 973, 1181, 1182, 1195, 1194
840, 961, 962, 975, 974, 1182, 1183, 1196, 1195
841, 963, 964, 977, 976, 1184, 1185, 1198, 1197
842, 964, 965, 978, 977, 1185, 1186, 1199, 1198
843, 965, 966, 979, 978, 1186, 1187, 1200, 1199
844, 966, 967, 980, 979, 1187, 1188, 1201, 1200
845, 967, 968, 981, 980, 1188, 1189, 1202, 1201
846, 968, 969, 982, 981, 1189, 1190, 1203, 1202
847, 969, 970, 983, 982, 1190, 1191, 1204, 1203
848, 970, 971, 984, 983, 1191, 1192, 1205, 1204
849, 971, 972, 985, 984, 1192, 1193, 1206, 1205
850, 972, 973, 986, 985, 1193, 1194, 1207, 1206
851, 973, 974, 987, 986, 1194, 1195, 1208, 1207
852, 974, 975, 988, 987, 1195, 1196, 1209, 1208
853, 976, 977, 990, 989, 1197, 1198, 1211, 1210
854, 977, 978, 991, 990, 1198, 1199, 1212, 1211
855, 978, 979, 992, 991, 1199, 1200, 1213, 1212
856, 979, 980, 993, 992, 1200, 1201, 1214, 1213
857, 980, 981, 994, 993, 1201, 1202, 1215, 1214
858, 981, 982, 995, 994, 1202, 1203, 1216, 1215
859, 982, 983, 996, 995, 1203, 1204, 1217, 1216
860, 983, 984, 997, 996, 1204, 1205, 1218, 1217
861, 984, 985, 998, 997, 1205, 1206, 1219, 1218
862, 985, 986, 999, 998, 1206, 1207, 1220, 1219
863, 986, 987, 1000, 999, 1207, 1208, 1221, 1220
864, 987, 988, 1001, 1000, 1208, 1209, 1222, 1221
865, 989, 990, 1003, 1002, 1210, 1211, 1224, 1223
866, 990, 991, 1004, 1003, 1211, 1212, 1225, 1224
867, 991, 992, 1005, 1004, 1212, 1213, 1226, 1225
868, 992, 993, 1006, 1005, 1213, 1214, 1227, 1226
869, 993, 994, 1007, 1006, 1214, 1215, 1228, 1227
870, 994, 995, 1008, 1007, 1215, 1216, 1229, 1228
871, 995, 996, 1009, 1008, 1216, 1217, 1230, 1229
872, 996, 997, 1010, 1009, 1217, 1218, 1231, 1230
873, 997, 998, 1011, 1010, 1218, 1219, 1232, 1231
874, 998, 999, 1012, 1011, 1219, 1220, 1233, 1232
875, 999, 1000, 1013, 1012, 1220, 1221, 1234, 1233
876, 1000, 1001, 1014, 1013, 1221, 1222, 1235, 1234
877, 1002, 1003, 1016, 1015, 1223, 1224, 1237, 1236
878, 1003, 1004, 1017, 1016, 1224, 1225, 1238, 1237
879, 1004, 1005, 1018, 1017, 1225, 1226, 1239, 1238
880, 1005, 1006, 1019, 1018, 1226, 1227, 1240, 1239
881, 1006, 1007, 1020, 1019, 1227, 1228, 1241, 1240
882, 1007, 1008, 1021, 1020, 1228, 1229, 1242, 1241
883, 1008, 1009, 1022, 1021, 1229, 1230, 1243, 1242
884, 1009, 1010, 1023, 1022, 1230, 1231, 1244, 1243
885, 1010, 1011, 1024, 1023, 1231, 1232, 1245, 1244
886, 1011, 1012, 1025, 1024, 1232, 1233, 1246, 1245
887, 1012, 1013, 1026, 1025, 1233, 1234, 1247, 1246
888, 1013, 1014, 1027, 1026, 1234, 1235, 1248, 1247
889, 1015, 1016, 1029, 1028, 1236, 1237, 1250, 1249
890, 1016, 1017, 1030, 1029, 1237, 1238, 1251, 1250
891, 1017, 1018, 1031, 1030, 1238, 1239, 1252, 1251
892, 1018, 1019, 1032, 1031, 1239, 1240, 1253, 1252
893, 1019, 1020, 1033, 1032, 1240, 1241, 1254, 1253
894, 1020, 1021, 1034, 1033, 1241, 1242, 1255, 1254
895, 1021, 1022, 1035, 1034, 1242, 1243, 1256, 1255
896, 1022, 1023, 1036, 1035, 1243, 1244, 1257, 1256
897, 1023, 1024, 1037, 1036, 1244, 1245, 1258, 1257
898, 1024, 1025, 1038, 1037, 1245, 1246, 1259, 1258
899, 1025, 1026, 1039, 1038, 1246, 1247, 1260, 1259
900, 1026, 1027, 1040, 1039, 1247, 1248, 1261, 1260
901, 1028, 1029, 1042, 1041, 1249, 1250, 1263, 1262
902, 1029, 1030, 1043, 1042, 1250, 1251, 1264, 1263
903, 1030, 1031, 1044, 1043, 1251, 1252, 1265, 1264
904, 1031, 1032, 1045, 1044, 1252, 1253, 1266, 1265
905, 1032, 1033, 1046, 1045, 1253, 1254, 1267, 1266
906, 1033, 1034, 1047, 1046, 1254, 1255, 1268, 1267
907, 1034, 1035, 1048, 1047, 1255, 1256, 1269, 1268
908, 1035, 1036, 1049, 1048, 1256, 1257, 1270, 1269
909, 1036, 1037, 1050, 1049, 1257, 1258, 1271, 1270
910, 1037, 1038, 1051, 1050, 1258, 1259, 1272, 1271
911, 1038, 1039, 1052, 1051, 1259, 1260, 1273, 1272
912, 1039, 1040, 1053, 1052, 1260, 1261, 1274, 1273
913, 1041, 1042, 1055, 1054, 1262, 1263, 1276, 1275
914, 1042, 1043, 1056, 1055, 1263, 1264, 1277, 1276
915, 1043, 1044, 1057, 1056, 1264, 1265, 1278, 1277
916, 1044, 1045, 1058, 1057, 1265, 1266, 1279, 1278
917, 1045, 1046, 1059, 1058, 1266, 1267, 1280, 1279
918, 1046, 1047, 1060, 1059, 1267, 1268, 1281, 1280
919, 1047, 1048, 1061, 1060, 1268, 1269, 1282, 1281
920, 1048, 1049, 1062, 1061, 1269, 1270, 1283, 1282
921, 1049, 1050, 1063, 1062, 1270, 1271, 1284, 1283
922, 1050, 1051, 1064, 1063, 1271, 1272, 1285, 1284
923, 1051, 1052, 1065, 1064, 1272, 1273, 1286, 1285
924, 1052, 1053, 1066, 1065, 1273, 1274, 1287, 1286
925, 1054, 1055, 1068, 1067, 1275, 1276, 1289, 1288
926, 1055, 1056, 1069, 1068, 1276, 1277, 1290, 1289
927, 1056, 1057, 1070, 1069, 1277, 1278, 1291, 1290
928, 1057, 1058, 1071, 1070, 1278, 1279, 1292, 1291
929, 1058, 1059, 1072, 1071, 1279, 1280, 1293, 1292
930, 1059, 1060, 1073, 1072, 1280, 1281, 1294, 1293
931, 1060, 1061, 1074, 1073, 1281, 1282, 1295, 1294
932, 1061, 1062, 1075, 1074, 1282, 1283, 1296, 1295
933, 1062, 1063, 1076, 1075, 1283, 1284, 1297, 1296
934, 1063, 1064, 1077, 1076, 1284, 1285, 1298, 1297
935, 1064, 1065, 1078, 1077, 1285, 1286, 1299, 1298
936, 1065, 1066, 1079, 1078, 1286, 1287, 1300, 1299
937, 1067, 1068, 1081, 1080, 1288, 1289, 1302, 1301
938, 1068, 1069, 1082, 1081, 1289, 1290, 1303, 1302
939, 1069, 1070, 1083, 1082, 1290, 1291, 1304, 1303
940, 1070, 1071, 1084, 1083, 1291, 1292, 1305, 1304
941, 1071, 1072, 1085, 1084, 1292, 1293, 1306, 1305
942, 1072, 1073, 1086, 1085, 1293, 1294, 1307, 1306
943, 1073, 1074, 1087, 1086, 1294, 1295, 1308, 1307
944, 1074, 1075, 1088, 1087, 1295, 1296, 1309, 1308
945, 1075, 1076, 1089, 1088, 1296, 1297, 1310, 1309
946, 1076, 1077, 1090, 1089, 1297, 1298, 1311, 1310
947, 1077, 1078, 1091, 1090, 1298, 1299, 1312, 1311
948, 1078, 1079, 1092, 1091, 1299, 1300, 1313, 1312
949, 1080, 1081, 1094, 1093, 1301, 1302, 1315, 1314
950, 1081, 1082, 1095, 1094, 1302, 1303, 1316, 1315
951, 1082, 1083, 1096, 1095, 1303, 1304, 1317, 1316
952, 1083, 1084, 1097, 1096, 1304, 1305, 1318, 1317
953, 1084, 1085, 1098, 1097, 1305, 1306, 1319, 1318
954, 1085, 1086, 1099, 1098, 1306, 1307, 1320, 1319
955, 1086, 1087, 1100, 1099, 1307, 1308, 1321, 1320
956, 1087, 1088, 1101, 1100, 1308, 1309, 1322, 1321
957, 1088, 1089, 1102, 1101, 1309, 1310, 1323, 1322
958, 1089, 1090, 1103, 1102, 1310, 1311, 1324, 1323
959, 1090, 1091, 1104, 1103, 1311, 1312, 1325, 1324
960, 1091, 1092, 1105, 1104, 1312, 1313, 1326, 1325
961, 1106, 1107, 1120, 1119, 1327, 1328, 1341, 1340
962, 1107, 1108, 1121, 1120, 1328, 1329, 1342, 1341
963, 1108, 1109, 1122, 1121, 1329, 1330, 1343, 1342
964, 1109, 1110, 1123, 1122, 1330, 1331, 1344, 1343
965, 1110, 1111, 1124, 1123, 1331, 1332, 1345, 1344
966, 1111, 1112, 1125, 1124, 1332, 1333, 1346, 1345
967, 1112, 1113, 1126, 1125, 1333, 1334, 1347, 1346
968, 1113, 1114, 1127, 1126, 1334, 1335, 1348, 1347
969, 1114, 1115, 1128, 1127, 1335, 1336, 1349, 1348
970, 1115, 1116, 1129, 1128, 1336, 1337, 1350, 1349
971, 1116, 1117, 1130, 1129, 1337, 1338, 1351, 1350
972, 1117, 1118, 1131, 1130, 1338, 1339, 1352, 1351
973, 1119, 1120, 1133, 1132, 1340, 1341, 1354, 1353
974, 1120, 1121, 1134, 1133, 1341, 1342, 1355, 1354
975, 1121, 1122, 1135, 1134, 1342, 1343, 1356, 1355
976, 1122, 1123, 1136, 1135, 1343, 1344, 1357, 1356
977, 1123, 1124, 1137, 1136, 1344, 1345, 1358, 1357
978, 1124, 1125, 1138, 1137, 1345, 1346, 1359, 1358
979, 1125, 1126, 1139, 1138, 1346, 1347, 1360, 1359
980, 1126, 1127, 1140, 1139, 1347, 1348, 1361, 1360
981, 1127, 1128, 1141, 1140, 1348, 1349, 1362, 1361
982, 1128, 1129, 1142, 1141, 1349, 1350, 1363, 1362
983, 1129, 1130, 1143, 1142, 1350, 1351, 1364, 1363
984, 1130, 1131, 1144, 1143, 1351, 1352, 1365, 1364
985, 1132, 1133, 1146, 1145, 1353, 1354, 1367, 1366
986, 1133, 1134, 1147, 1146, 1354, 1355, 1368, 1367
987, 1134, 1135, 1148, 1147, 1355, 1356, 1369, 1368
988, 1135, 1136, 1149, 1148, 1356, 1357, 1370, 1369
989, 1136, 1137, 1150, 1149, 1357, 1358, 1371, 1370
990, 1137, 1138, 1151, 1150, 1358, 1359, 1372, 1371
991, 1138, 1139, 1152, 1151, 1359, 1360, 1373, 1372
992, 1139, 1140, 1153, 1152, 1360, 1361, 1374, 1373
993, 1140, 1141, 1154, 1153, 1361, 1362, 1375, 1374
994, 1141, 1142, 1155, 1154, 1362, 1363, 1376, 1375
995, 1142, 1143, 1156, 1155, 1363, 1364, 1377, 1376
996, 1143, 1144, 1157, 1156, 1364, 1365, 1378, 1377
997, 1145, 1146, 1159, 1158, 1366, 1367, 1380, 1379
998, 1146, 1147, 1160, 1159, 1367, 1368, 1381, 1380
999, 1147, 1148, 1161, 1160, 1368, 1369, 1382, 1381
1000, 1148, 1149, 1162, 1161, 1369, 1370, 1383, 1382
1001, 1149, 1150, 1163, 1162, 1370, 1371, 1384, 1383
1002, 1150, 1151, 1164, 1163, 1371, 1372, 1385, 1384
1003, 1151, 1152, 1165, 1164, 1372, 1373, 1386, 1385
1004, 1152, 1153, 1166, 1165, 1373, 1374, 1387, 1386
1005, 1153, 1154, 1167, 1166, 1374, 1375, 1388, 1387
1006, 1154, 1155, 1168, 1167, 1375, 1376, 1389, 1388
1007, 1155, 1156, 1169, 1168, 1376, 1377, 1390, 1389
1008, 1156, 1157, 1170, 1169, 1377, 1378, 1391, 1390
1009, 1158, 1159, 1172, 1171, 1379, 1380, 1393, 1392
1010, 1159, 1160, 1173, 1172, 1380, 1381, 1394, 1393
1011, 1160, 1161, 1174, 1173, 1381, 1382, 1395, 1394
1012, 1161, 1162, 1175, 1174, 1382, 1383, 1396, 1395
1013, 1162, 1163, 1176, 1175, 1383, 1384, 1397, 1396
1014, 1163, 1164, 1177, 1176, 1384, 1385, 1398, 1397
1015, 1164, 1165, 1178, 1177, 1385, 1386, 1399, 1398
1016, 1165, 1166, 1179, 1178, 1386, 1387, 1400, 1399
1017, 1166, 1167, 1180, 1179, 1387, 1388, 1401, 1400
1018, 1167, 1168, 1181, 1180, 1388, 1389, 1402, 1401
1019, 1168, 1169, 1182, 1181, 1389, 1390, 1403, 1402
1020, 1169, 1170, 1183, 1182, 1390, 1391, 1404, 1403
1021, 1171, 1172, 1185, 1184, 1392, 1393, 1406, 1405
1022, 1172, 1173, 1186, 1185, 1393, 1394, 1407, 1406
1023, 1173, 1174, 1187, 1186, 1394, 1395, 1408, 1407
1024, 1174, 1175, 1188, 1187, 1395, 1396, 1409, 1408
1025, 1175, 1176, 1189, 1188, 1396, 1397, 1410, 1409
1026, 1176, 1177, 1190, 1189, 1397, 1398, 1411, 1410
1027, 1177, 1178, 1191, 1190, 1398, 1399, 1412, 1411
1028, 1178, 1179, 1192, 1191, 1399, 1400, 1413, 1412
1029, 1179, 1180, 1193, 1192, 1400, 1401, 1414, 1413
1030, 1180, 1181, 1194, 1193, 1401, 1402, 1415, 1414
1031, 1181, 1182, 1195, 1194, 1402, 1403, 1416, 1415
1032, 1182, 1183, 1196, 1195, 1403, 1404, 1417, 1416
1033, 1184, 1185, 1198, 1197, 1405, 1406, 1419, 1418
1034, 1185, 1186, 1199, 1198, 1406, 1407, 1420, 1419
1035, 1186, 1187, 1200, 1199, 1407, 1408, 1421, 1420
1036, 1187, 1188, 1201, 1200, 1408, 1409, 1422, 1421
1037, 1188, 1189, 1202, 1201, 1409, 1410, 1423, 1422
1038, 1189, 1190, 1203, 1202, 1410, 1411, 1424, 1423
1039, 1190, 1191, 1204, 1203, 1411, 1412, 1425, 1424
1040, 1191, 1192, 1205, 1204, 1412, 1413, 1426, 1425
1041, 1192, 1193, 1206, 1205, 1413, 1414, 1427, 1426
1042, 1193, 1194, 1207, 1206, 1414, 1415, 1428, 1427
1043, 1194, 1195, 1208, 1207, 1415, 1416, 1429, 1428
1044, 1195, 1196, 1209, 1208, 1416, 1417, 1430, 1429
1045, 1197, 1198, 1211, 1210, 1418, 1419, 1432, 1431
1046, 1198, 1199, 1212, 1211, 1419, 1420, 1433, 1432
1047, 1199, 1200, 1213, 1212, 1420, 1421, 1434, 1433
1048, 1200, 1201, 1214, 1213, 1421, 1422, 1435, 1434
1049, 1201, 1202, 1215, 1214, 1422, 1423, 1436, 1435
1050, 1202, 1203, 1216, 1215, 1423, 1424, 1437, 1436
1051, 1203, 1204, 1217, 1216, 1424, 1425, 1438, 1437
1052, 1204, 1205, 1218, 1217, 1425, 1426, 1439, 1438
1053, 1205, 1206, 1219, 1218, 1426, 1427, 1440, 1439
1054, 1206, 1207, 1220, 1219, 1427, 1428, 1441, 1440
1055, 1207, 1208, 1221, 1220, 1428, 1429, 1442, 1441
1056, 1208, 1209, 1222, 1221, 1429, 1430, 1443, 1442
1057, 1210, 1211, 1224, 1223, 1431, 1432, 1445, 1444
1058, 1211, 1212, 1225, 1224, 1432, 1433, 1446, 1445
1059, 1212, 1213, 1226, 1225, 1433, 1434, 1447, 1446
1060, 1213, 1214, 1227, 1226, 1434, 1435, 1448, 1447
1061, 1214, 1215, 1228, 1227, 1435, 1436, 1449, 1448
1062, 1215, 1216, 1229, 1228, 1436, 1437, 1450, 1449
1063, 1216, 1217, 1230, 1229, 1437, 1438, 1451, 1450
1064, 1217, 1218, 1231, 1230, 1438, 1439, 1452, 1451
1065, 1218, 1219, 1232, 1231, 1439, 1440, 1453, 1452
1066, 1219, 1220, 1233, 1232, 1440, 1441, 1454, 1453
1067, 1220, 1221, 1234, 1233, 1441, 1442, 1455, 1454
1068, 1221, 1222, 1235, 1234, 1442, 1443, 1456, 1455
1069, 1223, 1224, 1237, 1236, 1444, 1445, 1458, 1457
1070, 1224, 1225, 1238, 1237, 1445, 1446, 1459, 1458
1071, 1225, 1226, 1239, 1238, 1446, 1447, 1460, 1459
1072, 1226, 1227, 1240, 1239, 1447, 1448, 1461, 1460
1073, 1227, 1228, 1241, 1240, 1448, 1449, 1462, 1461
1074, 1228, 1229, 1242, 1241, 1449, 1450, 1463, 1462
1075, 1229, 1230, 1243, 1242, 1450, 1451, 1464, 1463
1076, 1230, 1231, 1244, 1243, 1451, 1452, 1465, 1464
1077, 1231, 1232, 1245, 1244, 1452, 1453, 1466, 1465
1078, 1232, 1233, 1246, 1245, 1453, 1454, 1467, 1466
1079, 1233, 1234, 1247, 1246, 1454, 1455, 1468, 1467
1080, 1234, 1235, 1248, 1247, 1455, 1456, 1469, 1468
1081, 1236, 1237, 1250, 1249, 1457, 1458, 1471, 1470
1082, 1237, 1238, 1251, 1250, 1458, 1459, 1472, 1471
1083, 1238, 1239, 1252, 1251, 1459, 1460, 1473, 1472
1084, 1239, 1240, 1253, 1252, 1460, 1461, 1474, 1473
1085, 1240, 1241, 1254, 1253, 1461, 1462, 1475, 1474
1086, 1241, 1242, 1255, 1254, 1462, 1463, 1476, 1475
1087, 1242, 1243, 1256, 1255, 1463, 1464, 1477, 1476
1088, 1243, 1244, 1257, 1256, 1464, 1465, 1478, 1477
1089, 1244, 1245, 1258, 1257, 1465, 1466, 1479, 1478
1090, 1245, 1246, 1259, 1258, 1466, 1467, 1480, 1479
1091, 1246, 1247, 1260, 1259, 1467, 1468, 1481, 1480
1092, 1247, 1248, 1261, 1260, 1468, 1469, 1482, 1481
1093, 1249, 1250, 1263, 1262, 1470, 1471, 1484, 1483
1094, 1250, 1251, 1264, 1263, 1471, 1472, 1485, 1484
1095, 1251, 1252, 1265, 1264, 1472, 1473, 1486, 1485
1096, 1252, 1253, 1266, 1265, 1473, 1474, 1487, 1486
1097, 1253, 1254, 1267, 1266, 1474, 1475, 1488, 1487
1098, 1254, 1255, 1268, 1267, 1475, 1476, 1489, 1488
1099, 1255, 1256, 1269, 1268, 1476, 1477, 1490, 1489
1100, 1256, 1257, 1270, 1269, 1477, 1478, 1491, 1490
1101, 1257, 1258, 1271, 1270, 1478, 1479, 1492, 1491
1102, 1258, 1259, 1272, 1271, 1479, 1480, 1493, 1492
1103, 1259, 1260, 1273, 1272, 1480, 1481, 1494, 1493
1104, 1260, 1261, 1274, 1273, 1481, 1482, 1495, 1494
1105, 1262, 1263, 1276, 1275, 1483, 1484, 1497, 1496
1106, 1263, 1264, 1277, 1276, 1484, 1485, 1498, 1497
1107, 1264, 1265, 1278, 1277, 1485, 1486, 1499, 1498
1108, 1265, 1266, 1279, 1278, 1486, 1487, 1500, 1499
1109, 1266, 1267, 1280, 1279, 1487, 1488, 1501, 1500
1110, 1267, 1268, 1281, 1280, 1488, 1489, 1502, 1501
1111, 1268, 1269, 1282, 1281, 1489, 1490, 1503, 1502
1112, 1269, 1270, 1283, 1282, 1490, 1491, 1504, 1503
1113, 1270, 1271, 1284, 1283, 1491, 1492, 1505, 1504
1114, 1271, 1272, 1285, 1284, 1492, 1493, 1506, 1505
1115, 1272, 1273, 1286, 1285, 1493, 1494, 1507, 1506
1116, 1273, 1274, 1287, 1286, 1494, 1495, 1508, 1507
1117, 1275, 1276, 1289, 1288, 1496, 1497, 1510, 1509
1118, 1276, 1277, 1290, 1289, 1497, 1498, 1511, 1510
1119, 1277, 1278, 1291, 1290, 1498, 1499, 1512, 1511
1120, 1278, 1279, 1292, 1291, 1499, 1500, 1513, 1512
1121, 1279, 1280, 1293, 1292, 1500, 1501, 1514, 1513
1122, 1280, 1281, 1294, 1293, 1501, 1502, 1515, 1514
1123, 1281, 1282, 1295, 1294, 1502, 1503, 1516, 1515
1124, 1282, 1283, 1296, 1295, 1503, 1504, 1517, 1516
1125, 1283, 1284, 1297, 1296, 1504, 1505, 1518, 1517
1126, 1284, 1285, 1298, 1297, 1505, 1506, 1519, 1518
1127, 1285, 1286, 1299, 1298, 1506, 1507, 1520, 1519
1128, 1286, 1287, 1300, 1299, 1507, 1508, 1521, 1520
1129, 1288, 1289, 1302, 1301, 1509, 1510, 1523, 1522
1130, 1289, 1290, 1303, 1302, 1510, 1511, 1524, 1523
1131, 1290, 1291, 1304, 1303, 1511, 1512, 1525, 1524
1132, 1291, 1292, 1305, 1304, 1512, 1513, 1526, 1525
1133, 1292, 1293, 1306, 1305, 1513, 1514, 1527, 1526
1134, 1293, 1294, 1307, 1306, 1514, 1515, 1528, 1527
1135, 1294, 1295, 1308, 1307, 1515, 1516, 1529, 1528
1136, 1295, 1296, 1309, 1308, 1516, 1517, 1530, 1529
1137, 1296, 1297, 1310, 1309, 1517, 1518, 1531, 1530
1138, 1297, 1298, 1311, 1310, 1518, 1519, 1532, 1531
1139, 1298, 1299, 1312, 1311, 1519, 1520, 1533, 1532
1140, 1299, 1300, 1313, 1312, 1520, 1521, 1534, 1533
1141, 1301, 1302, 1315, 1314, 1522, 1523, 1536, 1535
1142, 1302, 1303, 1316, 1315, 1523, 1524, 1537, 1536
1143, 1303, 1304, 1317, 1316, 1524, 1525, 1538, 1537
1144, 1304, 1305, 1318, 1317, 1525, 1526, 1539, 1538
1145, 1305, 1306, 1319, 1318, 1526, 1527, 1540, 1539
1146, 1306, 1307, 1320, 1319, 1527, 1528, 1541, 1540
1147, 1307, 1308, 1321, 1320, 1528, 1529, 1542, 1541
1148, 1308, 1309, 1322, 1321, 1529, 1530, 1543, 1542
1149, 1309, 1310, 1323, 1322, 1530, 1531, 1544, 1543
1150, 1310, 1311, 1324, 1323, 1531, 1532, 1545, 1544
1151, 1311, 1312, 1325, 1324, 1532, 1533, 1546, 1545
1152, 1312, 1313, 1326, 1325, 1533, 1534, 1547, 1546
1153, 1327, 1328, 1341, 1340, 1548, 1549, 1562, 1561
1154, 1328, 1329, 1342, 1341, 1549, 1550, 1563, 1562
1155, 1329, 1330, 1343, 1342, 1550, 1551, 1564, 1563
1156, 1330, 1331, 1344, 1343, 1551, 1552, 1565, 1564
1157, 1331, 1332, 1345, 1344, 1552, 1553, 1566, 1565
1158, 1332, 1333, 1346, 1345, 1553, 1554, 1567, 1566
1159, 1333, 1334, 1347, 1346, 1554, 1555, 1568, 1567
1160, 1334, 1335, 1348, 1347, 1555, 1556, 1569, 1568
1161, 1335, 1336, 1349, 1348, 1556, 1557, 1570, 1569
1162, 1336, 1337, 1350, 1349, 1557, 1558, 1571, 1570
1163, 1337, 1338, 1351, 1350, 1558, 1559, 1572, 1571
1164, 1338, 1339, 1352, 1351, 1559, 1560, 1573, 1572
1165, 1340, 1341, 1354, 1353, 1561, 1562, 1575, 1574
1166, 1341, 1342, 1355, 1354, 1562, 1563, 1576, 1575
1167, 1342, 1343, 1356, 1355, 1563, 1564, 1577, 1576
1168, 1343, 1344, 1357, 1356, 1564, 1565, 1578, 1577
1169, 1344, 1345, 1358, 1357, 1565, 1566, 1579, 1578
1170, 1345, 1346, 1359, 1358, 1566, 1567, 1580, 1579
1171, 1346, 1347, 1360, 1359, 1567, 1568, 1581, 1580
1172, 1347, 1348, 1361, 1360, 1568, 1569, 1582, 1581
1173, 1348, 1349, 1362, 1361, 1569, 1570, 1583, 1582
1174, 1349, 1350, 1363, 1362, 1570, 1571, 1584, 1583
1175, 1350, 1351, 1364, 1363, 1571, 1572, 1585, 1584
1176, 1351, 1352, 1365, 1364, 1572, 1573, 1586, 1585
1177, 1353, 1354, 1367, 1366, 1574, 1575, 1588, 1587
1178, 1354, 1355, 1368, 1367, 1575, 1576, 1589, 1588
1179, 1355, 1356, 1369, 1368, 1576, 1577, 1590, 1589
1180, 1356, 1357, 1370, 1369, 1577, 1578, 1591, 1590
1181, 1357, 1358, 1371, 1370, 1578, 1579, 1592, 1591
1182, 1358, 1359, 1372, 1371, 1579, 1580, 1593, 1592
1183, 1359, 1360, 1373, 1372, 1580, 1581, 1594, 1593
1184, 1360, 1361, 1374, 1373, 1581, 1582, 1595, 1594
1185, 1361, 1362, 1375, 1374, 1582, 1583, 1596, 1595
1186, 1362, 1363, 1376, 1375, 1583, 1584, 1597, 1596
1187, 1363, 1364, 1377, 1376, 1584, 1585, 1598, 1597
1188, 1364, 1365, 1378, 1377, 1585, 1586, 1599, 1598
1189, 1366, 1367, 1380, 1379, 1587, 1588, 1601, 1600
1190, 1367, 1368, 1381, 1380, 1588, 1589, 1602, 1601
1191, 1368, 1369, 1382, 1381, 1589, 1590, 1603, 1602
1192, 1369, 1370, 1383, 1382, 1590, 1591, 1604, 1603
1193, 1370, 1371, 1384, 1383, 1591, 1592, 1605, 1604
1194, 1371, 1372, 1385, 1384, 1592, 1593, 1606, 1605
1195, 1372, 1373, 1386, 1385, 1593, 1594, 1607, 1606
1196, 1373, 1374, 1387, 1386, 1594, 1595, 1608, 1607
1197, 1374, 1375, 1388, 1387, 1595, 1596, 1609, 1608
1198, 1375, 1376, 1389, 1388, 1596, 1597, 1610, 1609
1199, 1376, 1377, 1390, 1389, 1597, 1598, 1611, 1610
1200, 1377, 1378, 1391, 1390, 1598, 1599, 1612, 1611
1201, 1379, 1380, 1393, 1392, 1600, 1601, 1614, 1613
1202, 1380, 1381, 1394, 1393, 1601, 1602, 1615, 1614
1203, 1381, 1382, 1395, 1394, 1602, 1603, 1616, 1615
1204, 1382, 1383, 1396, 1395, 1603, 1604, 1617, 1616
1205, 1383, 1384, 1397, 1396, 1604, 1605, 1618, 1617
1206, 1384, 1385, 1398, 1397, 1605, 1606, 1619, 1618
1207, 1385, 1386, 1399, 1398, 1606, 1607, 1620, 1619
1208, 1386, 1387, 1400, 1399, 1607, 1608, 1621, 1620
1209, 1387, 1388, 1401, 1400, 1608, 1609, 1622, 1621
1210, 1388, 1389, 1402, 1401, 1609, 1610, 1623, 1622
1211, 1389, 1390, 1403, 1402, 1610, 1611, 1624, 1623
1212, 1390, 1391, 1404, 1403, 1611, 1612, 1625, 1624
1213, 1392, 1393, 1406, 1405, 1613, 1614, 1627, 1626
1214, 1393, 1394, 1407, 1406, 1614, 1615, 1628, 1627
1215, 1394, 1395, 1408, 1407, 1615, 1616, 1629, 1628
1216, 1395, 1396, 1409, 1408, 1616, 1617, 1630, 1629
1217, 1396, 1397, 1410, 1409, 1617, 1618, 1631, 1630
1218, 1397, 1398, 1411, 1410, 1618, 1619, 1632, 1631
1219, 1398, 1399, 1412, 1411, 1619, 1620, 1633, 1632
1220, 1399, 1400, 1413, 1412, 1620, 1621, 1634, 1633
1221, 1400, 1401, 1414, 1413, 1621, 1622, 1635, 1634
1222, 1401, 1402, 1415, 1414, 1622, 1623, 1636, 1635
1223, 1402, 1403, 1416, 1415, 1623, 1624, 1637, 1636
1224, 1403, 1404, 1417, 1416, 1624, 1625, 1638, 1637
1225, 1405, 1406, 1419, 1418, 1626, 1627, 1640, 1639
1226, 1406, 1407, 1420, 1419, 1627, 1628, 1641, 1640
1227, 1407, 1408, 1421, 1420, 1628, 1629, 1642, 1641
1228, 1408, 1409, 1422, 1421, 1629, 1630, 1643, 1642
1229, 1409, 1410, 1423, 1422, 1630, 1631, 1644, 1643
1230, 1410, 1411, 1424, 1423, 1631, 1632, 1645, 1644
1231, 1411, 1412, 1425, 1424, 1632, 1633, 1646, 1645
1232, 1412, 1413, 1426, 1425, 1633, 1634, 1647, 1646
1233, 1413, 1414, 1427, 1426, 1634, 1635, 1648, 1647
1234, 1414, 1415, 1428, 1427, 1635, 1636, 1649, 1648
1235, 1415, 1416, 1429, 1428, 1636, 1637, 1650, 1649
1236, 1416, 1417, 1430, 1429, 1637, 1638, 1651, 1650
1237, 1418, 1419, 1432, 1431, 1639, 1640, 1653, 1652
1238, 1419, 1420, 1433, 1432, 1640, 1641, 1654, 1653
1239, 1420, 1421, 1434, 1433, 1641, 1642, 1655, 1654
1240, 1421, 1422, 1435, 1434, 1642, 1643, 1656, 1655
1241, 1422, 1423, 1436, 1435, 1643, 1644, 1657, 1656
1242, 1423, 1424, 1437, 1436, 1644, 1645, 1658, 1657
1243, 1424, 1425, 1438, 1437, 1645, 1646, 1659, 1658
1244, 1425, 1426, 1439, 1438, 1646, 1647, 1660, 1659
1245, 1426, 1427, 1440, 1439, 1647, 1648, 1661, 1660
1246, 1427, 1428, 1441, 1440, 1648, 1649, 1662, 1661
1247, 1428, 1429, 1442, 1441, 1649, 1650, 1663, 1662
1248, 1429, 1430, 1443, 1442, 1650, 1651, 1664, 1663
1249, 1431, 1432, 1445, 1444, 1652, 1653, 1666, 1665
1250, 1432, 1433, 1446, 1445, 1653, 1654, 1667, 1666
1251, 1433, 1434, 1447, 1446, 1654, 1655, 1668, 1667
1252, 1434, 1435, 1448, 1447, 1655, 1656, 1669, 1668
1253, 1435, 1436, 1449, 1448, 1656, 1657, 1670, 1669
1254, 1436, 1437, 1450, 1449, 1657, 1658, 1671, 1670
1255, 1437, 1438, 1451, 1450, 1658, 1659, 1672, 1671
1256, 1438, 1439, 1452, 1451, 1659, 1660, 1673, 1672
1257, 1439, 1440, 1453, 1452, 1660, 1661, 1674, 1673
1258, 1440, 1441, 1454, 1453, 1661, 1662, 1675, 1674
1259, 1441, 1442, 1455, 1454, 1662, 1663, 1676, 1675
1260, 1442, 1443, 1456, 1455, 1663, 1664, 1677, 1676
1261, 1444, 1445, 1458, 1457, 1665, 1666, 1679, 1678
1262, 1445, 1446, 1459, 1458, 1666, 1667, 1680, 1679
1263, 1446, 1447, 1460, 1459, 1667, 1668, 1681, 1680
1264, 1447, 1448, 1461, 1460, 1668, 1669, 1682, 1681
1265, 1448, 1449, 1462, 1461, 1669, 1670, 1683, 1682
1266, 1449, 1450, 1463, 1462, 1670, 1671, 1684, 1683
1267, 1450, 1451, 1464, 1463, 1671, 1672, 1685, 1684
1268, 1451, 1452, 1465, 1464, 1672, 1673, 1686, 1685
1269, 1452, 1453, 1466, 1465, 1673, 1674, 1687, 1686
1270, 1453, 1454, 1467, 1466, 1674, 1675, 1688, 1687
1271, 1454, 1455, 1468, 1467, 1675, 1676, 1689, 1688
1272, 1455, 1456, 1469, 1468, 1676, 1677, 1690, 1689
1273, 1457, 1458, 1471, 1470, 1678, 1679, 1692, 1691
1274, 1458, 1459, 1472, 1471, 1679, 1680, 1693, 1692
1275, 1459, 1460, 1473, 1472, 1680, 1681, 1694, 1693
1276, 1460, 1461, 1474, 1473, 1681, 1682, 1695, 1694
1277, 1461, 1462, 1475, 1474, 1682, 1683, 1696, 1695
1278, 1462, 1463, 1476, 1475, 1683, 1684, 1697, 1696
1279, 1463, 1464, 1477, 1476, 1684, 1685, 1698, 1697
1280, 1464, 1465, 1478, 1477, 1685, 1686, 1699, 1698
1281, 1465, 1466, 1479, 1478, 1686, 1687, 1700, 1699
1282, 1466, 1467, 1480, 1479, 1687, 1688, 1701, 1700
1283, 1467, 1468, 1481, 1480, 1688, 1689, 1702, 1701
1284, 1468, 1469, 1482, 1481, 1689, 1690, 1703, 1702
1285, 1470, 1471, 1484, 1483, 1691, 1692, 1705, 1704
1286, 1471, 1472, 1485, 1484, 1692, 1693, 1706, 1705
1287, 1472, 1473, 1486, 1485, 1693, 1694, 1707, 1706
1288, 1473, 1474, 1487, 1486, 1694, 1695, 1708, 1707
1289, 1474, 1475, 1488, 1487, 1695, 1696, 1709, 1708
1290, 1475, 1476, 1489, 1488, 1696, 1697, 1710, 1709
1291, 1476, 1477, 1490, 1489, 1697, 1698, 1711, 1710
1292, 1477, 1478, 1491, 1490, 1698, 1699, 1712, 1711
1293, 1478, 1479, 1492, 1491, 1699, 1700, 1713, 1712
1294, 1479, 1480, 1493, 1492, 1700, 1701, 1714, 1713
1295, 1480, 1481, 1494, 1493, 1701, 1702, 1715, 1714
1296, 1481, 1482, 1495, 1494, 1702, 1703, 1716, 1715
1297, 1483, 1484, 1497, 1496, 1704, 1705, 1718, 1717
1298, 1484, 1485, 1498, 1497, 1705, 1706, 1719, 1718
1299, 1485, 1486, 1499, 1498, 1706, 1707, 1720, 1719
1300, 1486, 1487, 1500, 1499, 1707, 1708, 1721, 1720
1301, 1487, 1488, 1501, 1500, 1708, 1709, 1722, 1721
1302, 1488, 1489, 1502, 1501, 1709, 1710, 1723, 1722
1303, 1489, 1490, 1503, 1502, 1710, 1711, 1724, 1723
1304, 1490, 1491, 1504, 1503, 1711, 1712, 1725, 1724
1305, 1491, 1492, 1505, 1504, 1712, 1713, 1726, 1725
1306, 1492, 1493, 1506, 1505, 1713, 1714, 1727, 1726
1307, 1493, 1494, 1507, 1506, 1714, 1715, 1728, 1727
1308, 1494, 1495, 1508, 1507, 1715, 1716, 1729, 1728
1309, 1496, 1497, 1510, 1509, 1717, 1718, 1731, 1730
1310, 1497, 1498, 1511, 1510, 1718, 1719, 1732, 1731
1311, 1498, 1499, 1512, 1511, 1719, 1720, 1733, 1732
1312, 1499, 1500, 1513, 1512, 1720, 1721, 1734, 1733
1313, 1500, 1501, 1514, 1513, 1721, 1722, 1735, 1734
1314, 1501, 1502, 1515, 1514, 1722, 1723, 1736, 1735
1315, 1502, 1503, 1516, 1515, 1723, 1724, 1737, 1736
1316, 1503, 1504, 1517, 1516, 1724, 1725, 1738, 1737
1317, 1504, 1505, 1518, 1517, 1725, 1726, 1739, 1738
1318, 1505, 1506, 1519, 1518, 1726, 1727, 1740, 1739
1319, 1506, 1507, 1520, 1519, 1727, 1728, 1741, 1740
1320, 1507, 1508, 1521, 1520, 1728, 1729, 1742, 1741
1321, 1509, 1510, 1523, 1522, 1730, 1731, 1744, 1743
1322, 1510, 1511, 1524, 1523, 1731, 1732, 1745, 1744
1323, 1511, 1512, 1525, 1524, 1732, 1733, 1746, 1745
1324, 1512, 1513, 1526, 1525, 1733, 1734, 1747, 1746
1325, 1513, 1514, 1527, 1526, 1734, 1735, 1748, 1747
1326, 1514, 1515, 1528, 1527, 1735, 1736, 1749, 1748
1327, 1515, 1516, 1529, 1528, 1736, 1737, 1750, 1749
1328, 1516, 1517, 1530, 1529, 1737, 1738, 1751, 1750
1329, 1517, 1518, 1531, 1530, 1738, 1739, 1752, 1751
1330, 1518, 1519, 1532, 1531, 1739, 1740, 1753, 1752
1331, 1519, 1520, 1533, 1532, 1740, 1741, 1754, 1753
1332, 1520, 1521, 1534, 1533, 1741, 1742, 1755, 1754
1333, 1522, 1523, 1536, 1535, 1743, 1744, 1757, 1756
1334, 1523, 1524, 1537, 1536, 1744, 1745, 1758, 1757
1335, 1524, 1525, 1538, 1537, 1745, 1746, 1759, 1758
1336, 1525, 1526, 1539, 1538, 1746, 1747, 1760, 1759
1337, 1526, 1527, 1540, 1539, 1747, 1748, 1761, 1760
1338, 1527, 1528, 1541, 1540, 1748, 1749, 1762, 1761
1339, 1528, 1529, 1542, 1541, 1749, 1750, 1763, 1762
1340, 1529, 1530, 1543, 1542, 1750, 1751, 1764, 1763
1341, 1530, 1531, 1544, 1543, 1751, 1752, 1765, 1764
1342, 1531, 1532, 1545, 1544, 1752, 1753, 1766, 1765
1343, 1532, 1533, 1546, 1545, 1753, 1754, 1767, 1766
1344, 1533, 1534, 1547, 1546, 1754, 1755, 1768, 1767
1345, 1548, 1549, 1562, 1561, 1769, 1770, 1783, 1782
1346, 1549, 1550, 1563, 1562, 1770, 1771, 1784, 1783
1347, 1550, 1551, 1564, 1563, 1771, 1772, 1785, 1784
1348, 1551, 1552, 1565, 1564, 1772, 1773, 1786, 1785
1349, 1552, 1553, 1566, 1565, 1773, 1774, 1787, 1786
1350, 1553, 1554, 1567, 1566, 1774, 1775, 1788, 1787
1351, 1554, 1555, 1568, 1567, 1775, 1776, 1789, 1788
1352, 1555, 1556, 1569, 1568, 1776, 1777, 1790, 1789
1353, 1556, 1557, 1570, 1569, 1777, 1778, 1791, 1790
1354, 1557, 1558, 1571, 1570, 1778, 1779, 1792, 1791
1355, 1558, 1559, 1572, 1571, 1779, 1780, 1793, 1792
1356, 1559, 1560, 1573, 1572, 1780, 1781, 1794, 1793
1357, 1561, 1562, 1575, 1574, 1782, 1783, 1796, 1795
1358, 1562, 1563, 1576, 1575, 1783, 1784, 1797, 1796
1359, 1563, 1564, 1577, 1576, 1784, 1785, 1798, 1797
1360, 1564, 1565, 1578, 1577, 1785, 1786, 1799, 1798
1361, 1565, 1566, 1579, 1578, 1786, 1787, 1800, 1799
1362, 1566, 1567, 1580, 1579, 1787, 1788, 1801, 1800
1363, 1567, 1568, 1581, 1580, 1788, 1789, 1802, 1801
1364, 1568, 1569, 1582, 1581, 1789, 1790, 1803, 1802
1365, 1569, 1570, 1583, 1582, 1790, 1791, 1804, 1803
1366, 1570, 1571, 1584, 1583, 1791, 1792, 1805, 1804
1367, 1571, 1572, 1585, 1584, 1792, 1793, 1806, 1805
1368, 1572, 1573, 1586, 1585, 1793, 1794, 1807, 1806
1369, 1574, 1575, 1588, 1587, 1795, 1796, 1809, 1808
1370, 1575, 1576, 1589, 1588, 1796, 1797, 1810, 1809
1371, 1576, 1577, 1590, 1589, 1797, 1798, 1811, 1810
1372, 1577, 1578, 1591, 1590, 1798, 1799, 1812, 1811
1373, 1578, 1579, 1592, 1591, 1799, 1800, 1813, 1812
1374, 1579, 1580, 1593, 1592, 1800, 1801, 1814, 1813
1375, 1580, 1581, 1594, 1593, 1801, 1802, 1815, 1814
1376, 1581, 1582, 1595, 1594, 1802, 1803, 1816, 1815
1377, 1582, 1583, 1596, 1595, 1803, 1804, 1817, 1816
1378, 1583, 1584, 1597, 1596, 1804, 1805, 1818, 1817
1379, 1584, 1585, 1598, 1597, 1805, 1806, 1819, 1818
1380, 1585, 1586, 1599, 1598, 1806, 1807, 1820, 1819
1381, 1587, 1588, 1601, 1600, 1808, 1809, 1822, 1821
1382, 1588, 1589, 1602, 1601, 1809, 1810, 1823, 1822
1383, 1589, 1590, 1603, 1602, 1810, 1811, 1824, 1823
1384, 1590, 1591, 1604, 1603, 1811, 1812, 1825, 1824
1385, 1591, 1592, 1605, 1604, 1812, 1813, 1826, 1825
1386, 1592, 1593, 1606, 1605, 1813, 1814, 1827, 1826
1387, 1593, 1594, 1607, 1606, 1814, 1815, 1828, 1827
1388, 1594, 1595, 1608, 1607, 1815, 1816, 1829, 1828
1389, 1595, 1596, 1609, 1608, 1816, 1817, 1830, 1829
1390, 1596, 1597, 1610, 1609, 1817, 1818, 1831, 1830
1391, 1597, 1598, 1611, 1610, 1818, 1819, 1832, 1831
1392, 1598, 1599, 1612, 1611, 1819, 1820, 1833, 1832
1393, 1600, 1601, 1614, 1613, 1821, 1822, 1835, 1834
1394, 1601, 1602, 1615, 1614, 1822, 1823, 1836, 1835
1395, 1602, 1603, 1616, 1615, 1823, 1824, 1837, 1836
1396, 1603, 1604, 1617, 1616, 1824, 1825, 1838, 1837
1397, 1604, 1605, 1618, 1617, 1825, 1826, 1839, 1838
1398, 1605, 1606, 1619, 1618, 1826, 1827, 1840, 1839
1399, 1606, 1607, 1620, 1619, 1827, 1828, 1841, 1840
1400, 1607, 1608, 1621, 1620, 1828, 1829, 1842, 1841
1401, 1608, 1609, 1622, 1621, 1829, 1830, 1843, 1842
1402, 1609, 1610, 1623, 1622, 1830, 1831, 1844, 1843
1403, 1610, 1611, 1624, 1623, 1831, 1832, 1845, 1844
1404, 1611, 1612, 1625, 1624, 1832, 1833, 1846, 1845
1405, 1613, 1614, 1627, 1626, 1834, 1835, 1848, 1847
1406, 1614, 1615, 1628, 1627, 1835, 1836, 1849, 1848
1407, 1615, 1616, 1629, 1628, 1836, 1837, 1850, 1849
1408, 1616, 1617, 1630, 1629, 1837, 1838, 1851, 1850
1409, 1617, 1618, 1631, 1630, 1838, 1839, 1852, 1851
1410, 1618, 1619, 1632, 1631, 1839, 1840, 1853, 1852
1411, 1619, 1620, 1633, 1632, 1840, 1841, 1854, 1853
1412, 1620, 1621, 1634, 1633, 1841, 1842, 1855, 1854
1413, 1621, 1622, 1635, 1634, 1842, 1843, 1856, 1855
1414, 1622, 1623, 1636, 1635, 1843, 1844, 1857, 1856
1415, 1623, 1624, 1637, 1636, 1844, 1845, 1858, 1857
1416, 1624, 1625, 1638, 1637, 1845, 1846, 1859, 1858
1417, 1626, 1627, 1640, 1639, 1847, 1848, 1861, 1860
1418, 1627, 1628, 1641, 1640, 1848, 1849, 1862, 1861
1419, 1628, 1629, 1642, 1641, 1849, 1850, 1863, 1862
1420, 1629, 1630, 1643, 1642, 1850, 1851, 1864, 1863
1421, 1630, 1631, 1644, 1643, 1851, 1852, 1865, 1864
1422, 1631, 1632, 1645, 1644, 1852, 1853, 1866, 1865
1423, 1632, 1633, 1646, 1645, 1853, 1854, 1867, 1866
1424, 1633, 1634, 1647, 1646, 1854, 1855, 1868, 1867
1425, 1634, 1635, 1648, 1647, 1855, 1856, 1869, 1868
1426, 1635, 1636, 1649, 1648, 1856, 1857, 1870, 1869
1427, 1636, 1637, 1650, 1649, 1857, 1858, 1871, 1870
1428, 1637, 1638, 1651, 1650, 1858, 1859, 1872, 1871
1429, 1639, 1640, 1653, 1652, 1860, 1861, 1874, 1873
1430, 1640, 1641, 1654, 1653, 1861, 1862, 1875, 1874
1431, 1641, 1642, 1655, 1654, 1862, 1863, 1876, 1875
1432, 1642, 1643, 1656, 1655, 1863, 1864, 1877, 1876
1433, 1643, 1644, 1657, 1656, 1864, 1865, 1878, 1877
1434, 1644, 1645, 1658, 1657, 1865, 1866, 1879, 1878
1435, 1645, 1646, 1659, 1658, 1866, 1867, 1880, 1879
1436, 1646, 1647, 1660, 1659, 1867, 1868, 1881, 1880
1437, 1647, 1648, 1661, 1660, 1868, 1869, 1882, 1881
1438, 1648, 1649, 1662, 1661, 1869, 1870, 1883, 1882
1439, 1649, 1650, 1663, 1662, 1870, 1871, 1884, 1883
1440, 1650, 1651, 1664, 1663, 1871, 1872, 1885, 1884
1441, 1652, 1653, 1666, 1665, 1873, 1874, 1887, 1886
1442, 1653, 1654, 1667, 1666, 1874, 1875, 1888, 1887
1443, 1654, 1655, 1668, 1667, 1875, 1876, 1889, 1888
1444, 1655, 1656, 1669, 1668, 1876, 1877, 1890, 1889
1445, 1656, 1657, 1670, 1669, 1877, 1878, 1891, 1890
1446, 1657, 1658, 1671, 1670, 1878, 1879, 1892, 1891
1447, 1658, 1659, 1672, 1671, 1879, 1880, 1893, 1892
1448, 1659, 1660, 1673, 1672, 1880, 1881, 1894, 1893
1449, 1660, 1661, 1674, 1673, 1881, 1882, 1895, 1894
1450, 1661, 1662, 1675, 1674, 1882, 1883, 1896, 1895
1451, 1662, 1663, 1676, 1675, 1883, 1884, 1897, 1896
1452, 1663, 1664, 1677, 1676, 1884, 1885, 1898, 1897
1453, 1665, 1666, 1679, 1678, 1886, 1887, 1900, 1899
1454, 1666, 1667, 1680, 1679, 1887, 1888, 1901, 1900
1455, 1667, 1668, 1681, 1680, 1888, 1889, 1902, 1901
1456, 1668, 1669, 1682, 1681, 1889, 1890, 1903, 1902
1457, 1669, 1670, 1683, 1682, 1890, 1891, 1904, 1903
1458, 1670, 1671, 1684, 1683, 1891, 1892, 1905, 1904
1459, 1671, 1672, 1685, 1684, 1892, 1893, 1906, 1905
1460, 1672, 1673, 1686, 1685, 1893, 1894, 1907, 1906
1461, 1673, 1674, 1687, 1686, 1894, 1895, 1908, 1907
1462, 1674, 1675, 1688, 1687, 1895, 1896, 1909, 1908
1463, 1675, 1676, 1689, 1688, 1896, 1897, 1910, 1909
1464, 1676, 1677, 1690, 1689, 1897, 1898, 1911, 1910
1465, 1678, 1679, 1692, 1691, 1899, 1900, 1913, 1912
1466, 1679, 1680, 1693, 1692, 1900, 1901, 1914, 1913
1467, 1680, 1681, 1694, 1693, 1901, 1902, 1915, 1914
1468, 1681, 1682, 1695, 1694, 1902, 1903, 1916, 1915
1469, 1682, 1683, 1696, 1695, 1903, 1904, 1917, 1916
1470, 1683, 1684, 1697, 1696, 1904, 1905, 1918, 1917
1471, 1684, 1685, 1698, 1697, 1905, 1906, 1919, 1918
1472, 1685, 1686, 1699, 1698, 1906, 1907, 1920, 1919
1473, 1686, 1687, 1700, 1699, 1907, 1908, 1921, 1920
1474, 1687, 1688, 1701, 1700, 1908, 1909, 1922, 1921
1475, 1688, 1689, 1702, 1701, 1909, 1910, 1923, 1922
1476, 1689, 1690, 1703, 1702, 1910, 1911, 1924, 1923
1477, 1691, 1692, 1705, 1704, 1912, 1913, 1926, 1925
1478, 1692, 1693, 1706, 1705, 1913, 1914, 1927, 1926
1479, 1693, 1694, 1707, 1706, 1914, 1915, 1928, 1927
1480, 1694, 1695, 1708, 1707, 1915, 1916, 1929, 1928
1481, 1695, 1696, 1709, 1708, 1916, 1917, 1930, 1929
1482, 1696, 1697, 1710, 1709, 1917, 1918, 1931, 1930
1483, 1697, 1698, 1711, 1710, 1918, 1919, 1932, 1931
1484, 1698, 1699, 1712, 1711, 1919, 1920, 1933, 1932
1485, 1699, 1700, 1713, 1712, 1920, 1921, 1934, 1933
1486, 1700, 1701, 1714, 1713, 1921, 1922, 1935, 1934
1487, 1701, 1702, 1715, 1714, 1922, 1923, 1936, 1935
1488, 1702, 1703, 1716, 1715, 1923, 1924, 1937, 1936
1489, 1704, 1705, 1718, 1717, 1925, 1926, 1939, 1938
1490, 1705, 1706, 1719, 1718, 1926, 1927, 1940, 1939
1491, 1706, 1707, 1720, 1719, 1927, 1928, 1941, 1940
1492, 1707, 1708, 1721, 1720, 1928, 1929, 1942, 1941
1493, 1708, 1709, 1722, 1721, 1929, 1930, 1943, 1942
1494, 1709, 1710, 1723, 1722, 1930, 1931, 1944, 1943
1495, 1710, 1711, 1724, 1723, 1931, 1932, 1945, 1944
1496, 1711, 1712, 1725, 1724, 1932, 1933, 1946, 1945
1497, 1712, 1713, 1726, 1725, 1933, 1934, 1947, 1946
1498, 1713, 1714, 1727, 1726, 1934, 1935, 1948, 1947
1499, 1714, 1715, 1728, 1727, 1935, 1936, 1949, 1948
1500, 1715, 1716, 1729, 1728, 1936, 1937, 1950, 1949
1501, 1717, 1718, 1731, 1730, 1938, 1939, 1952, 1951
1502, 1718, 1719, 1732, 1731, 1939, 1940, 1953, 1952
1503, 1719, 1720, 1733, 1732, 1940, 1941, 1954, 1953
1504, 1720, 1721, 1734, 1733, 1941, 1942, 1955, 1954
1505, 1721, 1722, 1735, 1734, 1942, 1943, 1956, 1955
1506, 1722, 1723, 1736, 1735, 1943, 1944, 1957, 1956
1507, 1723, 1724, 1737, 1736, 1944, 1945, 1958, 1957
1508, 1724, 1725, 1738, 1737, 1945, 1946, 1959, 1958
1509, 1725, 1726, 1739, 1738, 1946, 1947, 1960, 1959
1510, 1726, 1727, 1740, 1739, 1947, 1948, 1961, 1960
1511, 1727, 1728, 1741, 1740, 1948, 1949, 1962, 1961
1512, 1728, 1729, 1742, 1741, 1949, 1950, 1963, 1962
1513, 1730, 1731, 1744, 1743, 1951, 1952, 1965, 1964
1514, 1731, 1732, 1745, 1744, 1952, 1953, 1966, 1965
1515, 1732, 1733, 1746, 1745, 1953, 1954, 1967, 1966
1516, 1733, 1734, 1747, 1746, 1954, 1955, 1968, 1967
1517, 1734, 1735, 1748, 1747, 1955, 1956, 1969, 1968
1518, 1735, 1736, 1749, 1748, 1956, 1957, 1970, 1969
1519, 1736, 1737, 1750, 1749, 1957, 1958, 1971, 1970
1520, 1737, 1738, 1751, 1750, 1958, 1959, 1972, 1971
1521, 1738, 1739, 1752, 1751, 1959, 1960, 1973, 1972
1522, 1739, 1740, 1753, 1752, 1960, 1961, 1974, 1973
1523, 1740, 1741, 1754, 1753, 1961, 1962, 1975, 1974
1524, 1741, 1742, 1755, 1754, 1962, 1963, 1976, 1975
1525, 1743, 1744, 1757, 1756, 1964, 1965, 1978, 1977
1526, 1744, 1745, 1758, 1757, 1965, 1966, 1979, 1978
1527, 1745, 1746, 1759, 1758, 1966, 1967, 1980, 1979
1528, 1746, 1747, 1760, 1759, 1967, 1968, 1981, 1980
1529, 1747, 1748, 1761, 1760, 1968, 1969, 1982, 1981
1530, 1748, 1749, 1762, 1761, 1969, 1970, 1983, 1982
1531, 1749, 1750, 1763, 1762, 1970, 1971, 1984, 1983
1532, 1750, 1751, 1764, 1763, 1971, 1972, 1985, 1984
1533, 1751, 1752, 1765, 1764, 1972, 1973, 1986, 1985
1534, 1752, 1753, 1766, 1765, 1973, 1974, 1987, 1986
1535, 1753, 1754, 1767, 1766, 1974, 1975, 1988, 1987
1536, 1754, 1755, 1768, 1767, 1975, 1976, 1989, 1988
1537, 1769, 1770, 1783, 1782, 1990, 1991, 2004, 2003
1538, 1770, 1771, 1784, 1783, 1991, 1992, 2005, 2004
1539, 1771, 1772, 1785, 1784, 1992, 1993, 2006, 2005
1540, 1772, 1773, 1786, 1785, 1993, 1994, 2007, 2006
1541, 1773, 1774, 1787, 1786, 1994, 1995, 2008, 2007
1542, 1774, 1775, 1788, 1787, 1995, 1996, 2009, 2008
1543, 1775, 1776, 1789, 1788, 1996, 1997, 2010, 2009
1544, 1776, 1777, 1790, 1789, 1997, 1998, 2011, 2010
1545, 1777, 1778, 1791, 1790, 1998, 1999, 2012, 2011
1546, 1778, 1779, 1792, 1791, 1999, 2000, 2013, 2012
1547, 1779, 1780, 1793, 1792, 2000, 2001, 2014, 2013
1548, 1780, 1781, 1794, 1793, 2001, 2002, 2015, 2014
1549, 1782, 1783, 1796, 1795, 2003, 2004, 2017, 2016
1550, 1783, 1784, 1797, 1796, 2004, 2005, 2018, 2017
1551, 1784, 1785, 1798, 1797, 2005, 2006, 2019, 2018
1552, 1785, 1786, 1799, 1798, 2006, 2007, 2020, 2019
1553, 1786, 1787, 1800, 1799, 2007, 2008, 2021, 2020
1554, 1787, 1788, 1801, 1800, 2008, 2009, 2022, 2021
1555, 1788, 1789, 1802, 1801, 2009, 2010, 2023, 2022
1556, 1789, 1790, 1803, 1802, 2010, 2011, 2024, 2023
1557, 1790, 1791, 1804, 1803, 2011, 2012, 2025, 2024
1558, 1791, 1792, 1805, 1804, 2012, 2013, 2026, 2025
1559, 1792, 1793, 1806, 1805, 2013, 2014, 2027, 2026
1560, 1793, 1794, 1807, 1806, 2014, 2015, 2028, 2027
1561, 1795, 1796, 1809, 1808, 2016, 2017, 2030, 2029
1562, 1796, 1797, 1810, 1809, 2017, 2018, 2031, 2030
1563, 1797, 1798, 1811, 1810, 2018, 2019, 2032, 2031
1564, 1798, 1799, 1812, 1811, 2019, 2020, 2033, 2032
1565, 1799, 1800, 1813, 1812, 2020, 2021, 2034, 2033
1566, 1800, 1801, 1814, 1813, 2021, 2022, 2035, 2034
1567, 1801, 1802, 1815, 1814, 2022, 2023, 2036, 2035
1568, 1802, 1803, 1816, 1815, 2023, 2024, 2037, 2036
1569, 1803, 1804, 1817, 1816, 2024, 2025, 2038, 2037
1570, 1804, 1805, 1818, 1817, 2025, 2026, 2039, 2038
1571, 1805, 1806, 1819, 1818, 2026, 2027, 2040, 2039
1572, 1806, 1807, 1820, 1819, 2027, 2028, 2041, 2040
1573, 1808, 1809, 1822, 1821, 2029, 2030, 2043, 2042
1574, 1809, 1810, 1823, 1822, 2030, 2031, 2044, 2043
1575, 1810, 1811, 1824, 1823, 2031, 2032, 2045, 2044
1576, 1811, 1812, 1825, 1824, 2032, 2033, 2046, 2045
1577, 1812, 1813, 1826, 1825, 2033, 2034, 2047, 2046
1578, 1813, 1814, 1827, 1826, 2034, 2035, 2048, 2047
1579, 1814, 1815, 1828, 1827, 2035, 2036, 2049, 2048
1580, 1815, 1816, 1829, 1828, 2036, 2037, 2050, 2049
1581, 1816, 1817, 1830, 1829, 2037, 2038, 2051, 2050
1582, 1817, 1818, 1831, 1830, 2038, 2039, 2052, 2051
1583, 1818, 1819, 1832, 1831, 2039, 2040, 2053, 2052
1584, 1819, 1820, 1833, 1832, 2040, 2041, 2054, 2053
1585, 1821, 1822, 1835, 1834, 2042, 2043, 2056, 2055
1586, 1822, 1823, 1836, 1835, 2043, 2044, 2057, 2056
1587, 1823, 1824, 1837, 1836, 2044, 2045, 2058, 2057
1588, 1824, 1825, 1838, 1837, 2045, 2046, 2059, 2058
1589, 1825, 1826, 1839, 1838, 2046, 2047, 2060, 2059
1590, 1826, 1827, 1840, 1839, 2047, 2048, 2061, 2060
1591, 1827, 1828, 1841, 1840, 2048, 2049, 2062, 2061
1592, 1828, 1829, 1842, 1841, 2049, 2050, 2063, 2062
1593, 1829, 1830, 1843, 1842, 2050, 2051, 2064, 2063
1594, 1830, 1831, 1844, 1843, 2051, 2052, 2065, 2064
1595, 1831, 1832, 1845, 1844, 2052, 2053, 2066, 2065
1596, 1832, 1833, 1846, 1845, 2053, 2054, 2067, 2066
1597, 1834, 1835, 1848, 1847, 2055, 2056, 2069, 2068
1598, 1835, 1836, 1849, 1848, 2056, 2057, 2070, 2069
1599, 1836, 1837, 1850, 1849, 2057, 2058, 2071, 2070
1600, 1837, 1838, 1851, 1850, 2058, 2059, 2072, 2071
1601, 1838, 1839, 1852, 1851, 2059, 2060, 2073, 2072
1602, 1839, 1840, 1853, 1852, 2060, 2061, 2074, 2073
1603, 1840, 1841, 1854, 1853, 2061, 2062, 2075, 2074
1604, 1841, 1842, 1855, 1854, 2062, 2063, 2076, 2075
1605, 1842, 1843, 1856, 1855, 2063, 2064, 2077, 2076
1606, 1843, 1844, 1857, 1856, 2064, 2065, 2078, 2077
1607, 1844, 1845, 1858, 1857, 2065, 2066, 2079, 2078
1608, 1845, 1846, 1859, 1858, 2066, 2067, 2080, 2079
1609, 1847, 1848, 1861, 1860, 2068, 2069, 2082, 2081
1610, 1848, 1849, 1862, 1861, 2069, 2070, 2083, 2082
1611, 1849, 1850, 1863, 1862, 2070, 2071, 2084, 2083
1612, 1850, 1851, 1864, 1863, 2071, 2072, 2085, 2084
1613, 1851, 1852, 1865, 1864, 2072, 2073, 2086, 2085
1614, 1852, 1853, 1866, 1865, 2073, 2074, 2087, 2086
1615, 1853, 1854, 1867, 1866, 2074, 2075, 2088, 2087
1616, 1854, 1855, 1868, 1867, 2075, 2076, 2089, 2088
1617, 1855, 1856, 1869, 1868, 2076, 2077, 2090, 2089
1618, 1856, 1857, 1870, 1869, 2077, 2078, 2091, 2090
1619, 1857, 1858, 1871, 1870, 2078, 2079, 2092, 2091
1620, 1858, 1859, 1872, 1871, 2079, 2080, 2093, 2092
1621, 1860, 1861, 1874, 1873, 2081, 2082, 2095, 2094
1622, 1861, 1862, 1875, 1874, 2082, 2083, 2096, 2095
1623, 1862, 1863, 1876, 1875, 2083, 2084, 2097, 2096
1624, 1863, 1864, 1877, 1876, 2084, 2085, 2098, 2097
1625, 1864, 1865, 1878, 1877, 2085, 2086, 2099, 2098
1626, 1865, 1866, 1879, 1878, 2086, 2087, 2100, 2099
1627, 1866, 1867, 1880, 1879, 2087, 2088, 2101, 2100
1628, 1867, 1868, 1881, 1880, 2088, 2089, 2102, 2101
1629, 1868, 1869, 1882, 1881, 2089, 2090, 2103, 2102
1630, 1869, 1870, 1883, 1882, 2090, 2091, 2104, 2103
1631, 1870, 1871, 1884, 1883, 2091, 2092, 2105, 2104
1632, 1871, 1872, 1885, 1884, 2092, 2093, 2106, 2105
1633, 1873, 1874, 1887, 1886, 2094, 2095, 2108, 2107
1634, 1874, 1875, 1888, 1887, 2095, 2096, 2109, 2108
1635, 1875, 1876, 1889, 1888, 2096, 2097, 2110, 2109
1636, 1876, 1877, 1890, 1889, 2097, 2098, 2111, 2110
1637, 1877, 1878, 1891, 1890, 2098, 2099, 2112, 2111
1638, 1878, 1879, 1892, 1891, 2099, 2100, 2113, 2112
1639, 1879, 1880, 1893, 1892, 2100, 2101, 2114, 2113
1640, 1880, 1881, 1894, 1893, 2101, 2102, 2115, 2114
1641, 1881, 1882, 1895, 1894, 2102, 2103, 2116, 2115
1642, 1882, 1883, 1896, 1895, 2103, 2104, 2117, 2116
1643, 1883, 1884, 1897, 1896, 2104, 2105, 2118, 2117
1644, 1884, 1885, 1898, 1897, 2105, 2106, 2119, 2118
1645, 1886, 1887, 1900, 1899, 2107, 2108, 2121, 2120
1646, 1887, 1888, 1901, 1900, 2108, 2109, 2122, 2121
1647, 1888, 1889, 1902, 1901, 2109, 2110, 2123, 2122
1648, 1889, 1890, 1903, 1902, 2110, 2111, 2124, 2123
1649, 1890, 1891, 1904, 1903, 2111, 2112, 2125, 2124
1650, 1891, 1892, 1905, 1904, 2112, 2113, 2126, 2125
1651, 1892, 1893, 1906, 1905, 2113, 2114, 2127, 2126
1652, 1893, 1894, 1907, 1906, 2114, 2115, 2128, 2127
1653, 1894, 1895, 1908, 1907, 2115, 2116, 2129, 2128
1654, 1895, 1896, 1909, 1908, 2116, 2117, 2130, 2129
1655, 1896, 1897, 1910, 1909, 2117, 2118, 2131, 2130
1656, 1897, 1898, 1911, 1910, 2118, 2119, 2132, 2131
1657, 1899, 1900, 1913, 1912, 2120, 2121, 2134, 2133
1658, 1900, 1901, 1914, 1913, 2121, 2122, 2135, 2134
1659, 1901, 1902, 1915, 1914, 2122, 2123, 2136, 2135
1660, 1902, 1903, 1916, 1915, 2123, 2124, 2137, 2136
1661, 1903, 1904, 1917, 1916, 2124, 2125, 2138, 2137
1662, 1904, 1905, 1918, 1917, 2125, 2126, 2139, 2138
1663, 1905, 1906, 1919, 1918, 2126, 2127, 2140, 2139
1664, 1906, 1907, 1920, 1919, 2127, 2128, 2141, 2140
1665, 1907, 1908, 1921, 1920, 2128, 2129, 2142, 2141
1666, 1908, 1909, 1922, 1921, 2129, 2130, 2143, 2142
1667, 1909, 1910, 1923, 1922, 2130, 2131, 2144, 2143
1668, 1910, 1911, 1924, 1923, 2131, 2132, 2145, 2144
1669, 1912, 1913, 1926, 1925, 2133, 2134, 2147, 2146
1670, 1913, 1914, 1927, 1926, 2134, 2135, 2148, 2147
1671, 1914, 1915, 1928, 1927, 2135, 2136, 2149, 2148
1672, 1915, 1916, 1929, 1928, 2136, 2137, 2150, 2149
1673, 1916, 1917, 1930, 1929, 2137, 2138, 2151, 2150
1674, 1917, 1918, 1931, 1930, 2138, 2139, 2152, 2151
1675, 1918, 1919, 1932, 1931, 2139, 2140, 2153, 2152
1676, 1919, 1920, 1933, 1932, 2140, 2141, 2154, 2153
1677, 1920, 1921, 1934, 1933, 2141, 2142, 2155, 2154
1678, 1921, 1922, 1935, 1934, 2142, 2143, 2156, 2155
1679, 1922, 1923, 1936, 1935, 2143, 2144, 2157, 2156
1680, 1923, 1924, 1937, 1936, 2144, 2145, 2158, 2157
1681, 1925, 1926, 1939, 1938, 2146, 2147, 2160, 2159
1682, 1926, 1927, 1940, 1939, 2147, 2148, 2161, 2160
1683, 1927, 1928, 1941, 1940, 2148, 2149, 2162, 2161
1684, 1928, 1929, 1942, 1941, 2149, 2150, 2163, 2162
1685, 1929, 1930, 1943, 1942, 2150, 2151, 2164, 2163
1686, 1930, 1931, 1944, 1943, 2151, 2152, 2165, 2164
1687, 1931, 1932, 1945, 1944, 2152, 2153, 2166, 2165
1688, 1932, 1933, 1946, 1945, 2153, 2154, 2167, 2166
1689, 1933, 1934, 1947, 1946, 2154, 2155, 2168, 2167
1690, 1934, 1935, 1948, 1947, 2155, 2156, 2169, 2168
1691, 1935, 1936, 1949, 1948, 2156, 2157, 2170, 2169
1692, 1936, 1937, 1950, 1949, 2157, 2158, 2171, 2170
1693, 1938, 1939, 1952, 1951, 2159, 2160, 2173, 2172
1694, 1939, 1940, 1953, 1952, 2160, 2161, 2174, 2173
1695, 1940, 1941, 1954, 1953, 2161, 2162, 2175, 2174
1696, 1941, 1942, 1955, 1954, 2162, 2163, 2176, 2175
1697, 1942, 1943, 1956, 1955, 2163, 2164, 2177, 2176
1698, 1943, 1944, 1957, 1956, 2164, 2165, 2178, 2177
1699, 1944, 1945, 1958, 1957, 2165, 2166, 2179, 2178
1700, 1945, 1946, 1959, 1958, 2166, 2167, 2180, 2179
1701, 1946, 1947, 1960, 1959, 2167, 2168, 2181, 2180
1702, 1947, 1948, 1961, 1960, 2168, 2169, 2182, 2181
1703, 1948, 1949, 1962, 1961, 2169, 2170, 2183, 2182
1704, 1949, 1950, 1963, 1962, 2170, 2171, 2184, 2183
1705, 1951, 1952, 1965, 1964, 2172, 2173, 2186, 2185
1706, 1952, 1953, 1966, 1965, 2173, 2174, 2187, 2186
1707, 1953, 1954, 1967, 1966, 2174, 2175, 2188, 2187
1708, 1954, 1955, 1968, 1967, 2175, 2176, 2189, 2188
1709, 1955, 1956, 1969, 1968, 2176, 2177, 2190, 2189
1710, 1956, 1957, 1970, 1969, 2177, 2178, 2191, 2190
1711, 1957, 1958, 1971, 1970, 2178, 2179, 2192, 2191
1712, 1958, 1959, 1972, 1971, 2179, 2180, 2193, 2192
1713, 1959, 1960, 1973, 1972, 2180, 2181, 2194, 2193
1714, 1960, 1961, 1974, 1973, 2181, 2182, 2195, 2194
1715, 1961, 1962, 1975, 1974, 2182, 2183, 2196, 2195
1716, 1962, 1963, 1976, 1975, 2183, 2184, 2197, 2196
1717, 1964, 1965, 1978, 1977, 2185, 2186, 2199, 2198
1718, 1965, 1966, 1979, 1978, 2186, 2187, 2200, 2199
1719, 1966, 1967, 1980, 1979, 2187, 2188, 2201, 2200
1720, 1967, 1968, 1981, 1980, 2188, 2189, 2202, 2201
1721, 1968, 1969, 1982, 1981, 2189, 2190, 2203, 2202
1722, 1969, 1970, 1983, 1982, 2190, 2191, 2204, 2203
1723, 1970, 1971, 1984, 1983, 2191, 2192, 2205, 2204
1724, 1971, 1972, 1985, 1984, 2192, 2193, 2206, 2205
1725, 1972, 1973, 1986, 1985, 2193, 2194, 2207, 2206
1726, 1973, 1974, 1987, 1986, 2194, 2195, 2208, 2207
1727, 1974, 1975, 1988, 1987, 2195, 2196, 2209, 2208
1728, 1975, 1976, 1989, 1988, 2196, 2197, 2210, 2209
1729, 1990, 1991, 2004, 2003, 2211, 2212, 2225, 2224
1730, 1991, 1992, 2005, 2004, 2212, 2213, 2226, 2225
1731, 1992, 1993, 2006, 2005, 2213, 2214, 2227, 2226
1732, 1993, 1994, 2007, 2006, 2214, 2215, 2228, 2227
1733, 1994, 1995, 2008, 2007, 2215, 2216, 2229, 2228
1734, 1995, 1996, 2009, 2008, 2216, 2217, 2230, 2229
1735, 1996, 1997, 2010, 2009, 2217, 2218, 2231, 2230
1736, 1997, 1998, 2011, 2010, 2218, 2219, 2232, 2231
1737, 1998, 1999, 2012, 2011, 2219, 2220, 2233, 2232
1738, 1999, 2000, 2013, 2012, 2220, 2221, 2234, 2233
1739, 2000, 2001, 2014, 2013, 2221, 2222, 2235, 2234
1740, 2001, 2002, 2015, 2014, 2222, 2223, 2236, 2235
1741, 2003, 2004, 2017, 2016, 2224, 2225, 2238, 2237
1742, 2004, 2005, 2018, 2017, 2225, 2226, 2239, 2238
1743, 2005, 2006, 2019, 2018, 2226, 2227, 2240, 2239
1744, 2006, 2007, 2020, 2019, 2227, 2228, 2241, 2240
1745, 2007, 2008, 2021, 2020, 2228, 2229, 2242, 2241
1746, 2008, 2009, 2022, 2021, 2229, 2230, 2243, 2242
1747, 2009, 2010, 2023, 2022, 2230, 2231, 2244, 2243
1748, 2010, 2011, 2024, 2023, 2231, 2232, 2245, 2244
1749, 2011, 2012, 2025, 2024, 2232, 2233, 2246, 2245
1750, 2012, 2013, 2026, 2025, 2233, 2234, 2247, 2246
1751, 2013, 2014, 2027, 2026, 2234, 2235, 2248, 2247
1752, 2014, 2015, 2028, 2027, 2235, 2236, 2249, 2248
1753, 2016, 2017, 2030, 2029, 2237, 2238, 2251, 2250
1754, 2017, 2018, 2031, 2030, 2238, 2239, 2252, 2251
1755, 2018, 2019, 2032, 2031, 2239, 2240, 2253, 2252
1756, 2019, 2020, 2033, 2032, 2240, 2241, 2254, 2253
1757, 2020, 2021, 2034, 2033, 2241, 2242, 2255, 2254
1758, 2021, 2022, 2035, 2034, 2242, 2243, 2256, 2255
1759, 2022, 2023, 2036, 2035, 2243, 2244, 2257, 2256
1760, 2023, 2024, 2037, 2036, 2244, 2245, 2258, 2257
1761, 2024, 2025, 2038, 2037, 2245, 2246, 2259, 2258
1762, 2025, 2026, 2039, 2038, 2246, 2247, 2260, 2259
1763, 2026, 2027, 2040, 2039, 2247, 2248, 2261, 2260
1764, 2027, 2028, 2041, 2040, 2248, 2249, 2262, 2261
1765, 2029, 2030, 2043, 2042, 2250, 2251, 2264, 2263
1766, 2030, 2031, 2044, 2043, 2251, 2252, 2265, 2264
1767, 2031, 2032, 2045, 2044, 2252, 2253, 2266, 2265
1768, 2032, 2033, 2046, 2045, 2253, 2254, 2267, 2266
1769, 2033, 2034, 2047, 2046, 2254, 2255, 2268, 2267
1770, 2034, 2035, 2048, 2047, 2255, 2256, 2269, 2268
1771, 2035, 2036, 2049, 2048, 2256, 2257, 2270, 2269
1772, 2036, 2037, 2050, 2049, 2257, 2258, 2271, 2270
1773, 2037, 2038, 2051, 2050, 2258, 2259, 2272, 2271
1774, 2038, 2039, 2052, 2051, 2259, 2260, 2273, 2272
1775, 2039, 2040, 2053, 2052, 2260, 2261, 2274, 2273
1776, 2040, 2041, 2054, 2053, 2261, 2262, 2275, 2274
1777, 2042, 2043, 2056, 2055, 2263, 2264, 2277, 2276
1778, 2043, 2044, 2057, 2056, 2264, 2265, 2278, 2277
1779, 2044, 2045, 2058, 2057, 2265, 2266, 2279, 2278
1780, 2045, 2046, 2059, 2058, 2266, 2267, 2280, 2279
1781, 2046, 2047, 2060, 2059, 2267, 2268, 2281, 2280
1782, 2047, 2048, 2061, 2060, 2268, 2269, 2282, 2281
1783, 2048, 2049, 2062, 2061, 2269, 2270, 2283, 2282
1784, 2049, 2050, 2063, 2062, 2270, 2271, 2284, 2283
1785, 2050, 2051, 2064, 2063, 2271, 2272, 2285, 2284
1786, 2051, 2052, 2065, 2064, 2272, 2273, 2286, 2285
1787, 2052, 2053, 2066, 2065, 2273, 2274, 2287, 2286
1788, 2053, 2054, 2067, 2066, 2274, 2275, 2288, 2287
1789, 2055, 2056, 2069, 2068, 2276, 2277, 2290, 2289
1790, 2056, 2057, 2070, 2069, 2277, 2278, 2291, 2290
1791, 2057, 2058, 2071, 2070, 2278, 2279, 2292, 2291
1792, 2058, 2059, 2072, 2071, 2279, 2280, 2293, 2292
1793, 2059, 2060, 2073, 2072, 2280, 2281, 2294, 2293
1794, 2060, 2061, 2074, 2073, 2281, 2282, 2295, 2294
1795, 2061, 2062, 2075, 2074, 2282, 2283, 2296, 2295
1796, 2062, 2063, 2076, 2075, 2283, 2284, 2297, 2296
1797, 2063, 2064, 2077, 2076, 2284, 2285, 2298, 2297
1798, 2064, 2065, 2078, 2077, 2285, 2286, 2299, 2298
1799, 2065, 2066, 2079, 2078, 2286, 2287, 2300, 2299
1800, 2066, 2067, 2080, 2079, 2287, 2288, 2301, 2300
1801, 2068, 2069, 2082, 2081, 2289, 2290, 2303, 2302
1802, 2069, 2070, 2083, 2082, 2290, 2291, 2304, 2303
1803, 2070, 2071, 2084, 2083, 2291, 2292, 2305, 2304
1804, 2071, 2072, 2085, 2084, 2292, 2293, 2306, 2305
1805, 2072, 2073, 2086, 2085, 2293, 2294, 2307, 2306
1806, 2073, 2074, 2087, 2086, 2294, 2295, 2308, 2307
1807, 2074, 2075, 2088, 2087, 2295, 2296, 2309, 2308
1808, 2075, 2076, 2089, 2088, 2296, 2297, 2310, 2309
1809, 2076, 2077, 2090, 2089, 2297, 2298, 2311, 2310
1810, 2077, 2078, 2091, 2090, 2298, 2299, 2312, 2311
1811, 2078, 2079, 2092, 2091, 2299, 2300, 2313, 2312
1812, 2079, 2080, 2093, 2092, 2300, 2301, 2314, 2313
1813, 2081, 2082, 2095, 2094, 2302, 2303, 2316, 2315
1814, 2082, 2083, 2096, 2095, 2303, 2304, 2317, 2316
1815, 2083, 2084, 2097, 2096, 2304, 2305, 2318, 2317
1816, 2084, 2085, 2098, 2097, 2305, 2306, 2319, 2318
1817, 2085, 2086, 2099, 2098, 2306, 2307, 2320, 2319
1818, 2086, 2087, 2100, 2099, 2307, 2308, 2321, 2320
1819, 2087, 2088, 2101, 2100, 2308, 2309, 2322, 2321
1820, 2088, 2089, 2102, 2101, 2309, 2310, 2323, 2322
1821, 2089, 2090, 2103, 2102, 2310, 2311, 2324, 2323
1822, 2090, 2091, 2104, 2103, 2311, 2312, 2325, 2324
1823, 2091, 2092, 2105, 2104, 2312, 2313, 2326, 2325
1824, 2092, 2093, 2106, 2105, 2313, 2314, 2327, 2326
1825, 2094, 2095, 2108, 2107, 2315, 2316, 2329, 2328
1826, 2095, 2096, 2109, 2108, 2316, 2317, 2330, 2329
1827, 2096, 2097, 2110, 2109, 2317, 2318, 2331, 2330
1828, 2097, 2098, 2111, 2110, 2318, 2319, 2332, 2331
1829, 2098, 2099, 2112, 2111, 2319, 2320, 2333, 2332
1830, 2099, 2100, 2113, 2112, 2320, 2321, 2334, 2333
1831, 2100, 2101, 2114, 2113, 2321, 2322, 2335, 2334
1832, 2101, 2102, 2115, 2114, 2322, 2323, 2336, 2335
1833, 2102, 2103, 2116, 2115, 2323, 2324, 2337, 2336
1834, 2103, 2104, 2117, 2116, 2324, 2325, 2338, 2337
1835, 2104, 2105, 2118, 2117, 2325, 2326, 2339, 2338
1836, 2105, 2106, 2119, 2118, 2326, 2327, 2340, 2339
1837, 2107, 2108, 2121, 2120, 2328, 2329, 2342, 2341
1838, 2108, 2109, 2122, 2121, 2329, 2330, 2343, 2342
1839, 2109, 2110, 2123, 2122, 2330, 2331, 2344, 2343
1840, 2110, 2111, 2124, 2123, 2331, 2332, 2345, 2344
1841, 2111, 2112, 2125, 2124, 2332, 2333, 2346, 2345
1842, 2112, 2113, 2126, 2125, 2333, 2334, 2347, 2346
1843, 2113, 2114, 2127, 2126, 2334, 2335, 2348, 2347
1844, 2114, 2115, 2128, 2127, 2335, 2336, 2349, 2348
1845, 2115, 2116, 2129, 2128, 2336, 2337, 2350, 2349
1846, 2116, 2117, 2130, 2129, 2337, 2338, 2351, 2350
1847, 2117, 2118, 2131, 2130, 2338, 2339, 2352, 2351
1848, 2118, 2119, 2132, 2131, 2339, 2340, 2353, 2352
1849, 2120, 2121, 2134, 2133, 2341, 2342, 2355, 2354
1850, 2121, 2122, 2135, 2134, 2342, 2343, 2356, 2355
1851, 2122, 2123, 2136, 2135, 2343, 2344, 2357, 2356
1852, 2123, 2124, 2137, 2136, 2344, 2345, 2358, 2357
1853, 2124, 2125, 2138, 2137, 2345, 2346, 2359, 2358
1854, 2125, 2126, 2139, 2138, 2346, 2347, 2360, 2359
1855, 2126, 2127, 2140, 2139, 2347, 2348, 2361, 2360
1856, 2127, 2128, 2141, 2140, 2348, 2349, 2362, 2361
1857, 2128, 2129, 2142, 2141, 2349, 2350, 2363, 2362
1858, 2129, 2130, 2143, 2142, 2350, 2351, 2364, 2363
1859, 2130, 2131, 2144, 2143, 2351, 2352, 2365, 2364
1860, 2131, 2132, 2145, 2144, 2352, 2353, 2366, 2365
1861, 2133, 2134, 2147, 2146, 2354, 2355, 2368, 2367
1862, 2134, 2135, 2148, 2147, 2355, 2356, 2369, 2368
1863, 2135, 2136, 2149, 2148, 2356, 2357, 2370, 2369
1864, 2136, 2137, 2150, 2149, 2357, 2358, 2371, 2370
1865, 2137, 2138, 2151, 2150, 2358, 2359, 2372, 2371
1866, 2138, 2139, 2152, 2151, 2359, 2360, 2373, 2372
1867, 2139, 2140, 2153, 2152, 2360, 2361, 2374, 2373
1868, 2140, 2141, 2154, 2153, 2361, 2362, 2375, 2374
1869, 2141, 2142, 2155, 2154, 2362, 2363, 2376, 2375
1870, 2142, 2143, 2156, 2155, 2363, 2364, 2377, 2376
1871, 2143, 2144, 2157, 2156, 2364, 2365, 2378, 2377
1872, 2144, 2145, 2158, 2157, 2365, 2366, 2379, 2378
1873, 2146, 2147, 2160, 2159, 2367, 2368, 2381, 2380
1874, 2147, 2148, 2161, 2160, 2368, 2369, 2382, 2381
1875, 2148, 2149, 2162, 2161, 2369, 2370, 2383, 2382
1876, 2149, 2150, 2163, 2162, 2370, 2371, 2384, 2383
1877, 2150, 2151, 2164, 2163, 2371, 2372, 2385, 2384
1878, 2151, 2152, 2165, 2164, 2372, 2373, 2386, 2385
1879, 2152, 2153, 2166, 2165, 2373, 2374, 2387, 2386
1880, 2153, 2154, 2167, 2166, 2374, 2375, 2388, 2387
1881, 2154, 2155, 2168, 2167, 2375, 2376, 2389, 2388
1882, 2155, 2156, 2169, 2168, 2376, 2377, 2390, 2389
1883, 2156, 2157, 2170, 2169, 2377, 2378, 2391, 2390
1884, 2157, 2158, 2171, 2170, 2378, 2379, 2392, 2391
1885, 2159, 2160, 2173, 2172, 2380, 2381, 2394, 2393
1886, 2160, 2161, 2174, 2173, 2381, 2382, 2395, 2394
1887, 2161, 2162, 2175, 2174, 2382, 2383, 2396, 2395
1888, 2162, 2163, 2176, 2175, 2383, 2384, 2397, 2396
1889, 2163, 2164, 2177, 2176, 2384, 2385, 2398, 2397
1890, 2164, 2165, 2178, 2177, 2385, 2386, 2399, 2398
1891, 2165, 2166, 2179, 2178, 2386, 2387, 2400, 2399
1892, 2166, 2167, 2180, 2179, 2387, 2388, 2401, 2400
1893, 2167, 2168, 2181, 2180, 2388, 2389, 2402, 2401
1894, 2168, 2169, 2182, 2181, 2389, 2390, 2403, 2402
1895, 2169, 2170, 2183, 2182, 2390, 2391, 2404, 2403
1896, 2170, 2171, 2184, 2183, 2391, 2392, 2405, 2404
1897, 2172, 2173, 2186, 2185, 2393, 2394, 2407, 2406
1898, 2173, 2174, 2187, 2186, 2394, 2395, 2408, 2407
1899, 2174, 2175, 2188, 2187, 2395, 2396, 2409, 2408
1900, 2175, 2176, 2189, 2188, 2396, 2397, 2410, 2409
1901, 2176, 2177, 2190, 2189, 2397, 2398, 2411, 2410
1902, 2177, 2178, 2191, 2190, 2398, 2399, 2412, 2411
1903, 2178, 2179, 2192, 2191, 2399, 2400, 2413, 2412
1904, 2179, 2180, 2193, 2192, 2400, 2401, 2414, 2413
1905, 2180, 2181, 2194, 2193, 2401, 2402, 2415, 2414
1906, 2181, 2182, 2195, 2194, 2402, 2403, 2416, 2415
1907, 2182, 2183, 2196, 2195, 2403, 2404, 2417, 2416
1908, 2183, 2184, 2197, 2196, 2404, 2405, 2418, 2417
1909, 2185, 2186, 2199, 2198, 2406, 2407, 2420, 2419
1910, 2186, 2187, 2200, 2199, 2407, 2408, 2421, 2420
1911, 2187, 2188, 2201, 2200, 2408, 2409, 2422, 2421
1912, 2188, 2189, 2202, 2201, 2409, 2410, 2423, 2422
1913, 2189, 2190, 2203, 2202, 2410, 2411, 2424, 2423
1914, 2190, 2191, 2204, 2203, 2411, 2412, 2425, 2424
1915, 2191, 2192, 2205, 2204, 2412, 2413, 2426, 2425
1916, 2192, 2193, 2206, 2205, 2413, 2414, 2427, 2426
1917, 2193, 2194, 2207, 2206, 2414, 2415, 2428, 2427
1918, 2194, 2195, 2208, 2207, 2415, 2416, 2429, 2428
1919, 2195, 2196, 2209, 2208, 2416, 2417, 2430, 2429
1920, 2196, 2197, 2210, 2209, 2417, 2418, 2431, 2430
1921, 2211, 2212, 2225, 2224, 2432, 2433, 2446, 2445
1922, 2212, 2213, 2226, 2225, 2433, 2434, 2447, 2446
1923, 2213, 2214, 2227, 2226, 2434, 2435, 2448, 2447
1924, 2214, 2215, 2228, 2227, 2435, 2436, 2449, 2448
1925, 2215, 2216, 2229, 2228, 2436, 2437, 2450, 2449
1926, 2216, 2217, 2230, 2229, 2437, 2438, 2451, 2450
1927, 2217, 2218, 2231, 2230, 2438, 2439, 2452, 2451
1928, 2218, 2219, 2232, 2231, 2439, 2440, 2453, 2452
1929, 2219, 2220, 2233, 2232, 2440, 2441, 2454, 2453
1930, 2220, 2221, 2234, 2233, 2441, 2442, 2455, 2454
1931, 2221, 2222, 2235, 2234, 2442, 2443, 2456, 2455
1932, 2222, 2223, 2236, 2235, 2443, 2444, 2457, 2456
1933, 2224, 2225, 2238, 2237, 2445, 2446, 2459, 2458
1934, 2225, 2226, 2239, 2238, 2446, 2447, 2460, 2459
1935, 2226, 2227, 2240, 2239, 2447, 2448, 2461, 2460
1936, 2227, 2228, 2241, 2240, 2448, 2449, 2462, 2461
1937, 2228, 2229, 2242, 2241, 2449, 2450, 2463, 2462
1938, 2229, 2230, 2243, 2242, 2450, 2451, 2464, 2463
1939, 2230, 2231, 2244, 2243, 2451, 2452, 2465, 2464
1940, 2231, 2232, 2245, 2244, 2452, 2453, 2466, 2465
1941, 2232, 2233, 2246, 2245, 2453, 2454, 2467, 2466
1942, 2233, 2234, 2247, 2246, 2454, 2455, 2468, 2467
1943, 2234, 2235, 2248, 2247, 2455, 2456, 2469, 2468
1944, 2235, 2236, 2249, 2248, 2456, 2457, 2470, 2469
1945, 2237, 2238, 2251, 2250, 2458, 2459, 2472, 2471
1946, 2238, 2239, 2252, 2251, 2459, 2460, 2473, 2472
1947, 2239, 2240, 2253, 2252, 2460, 2461, 2474, 2473
1948, 2240, 2241, 2254, 2253, 2461, 2462, 2475, 2474
1949, 2241, 2242, 2255, 2254, 2462, 2463, 2476, 2475
1950, 2242, 2243, 2256, 2255, 2463, 2464, 2477, 2476
1951, 2243, 2244, 2257, 2256, 2464, 2465, 2478, 2477
1952, 2244, 2245, 2258, 2257, 2465, 2466, 2479, 2478
1953, 2245, 2246, 2259, 2258, 2466, 2467, 2480, 2479
1954, 2246, 2247, 2260, 2259, 2467, 2468, 2481, 2480
1955, 2247, 2248, 2261, 2260, 2468, 2469, 2482, 2481
1956, 2248, 2249, 2262, 2261, 2469, 2470, 2483, 2482
1957, 2250, 2251, 2264, 2263, 2471, 2472, 2485, 2484
1958, 2251, 2252, 2265, 2264, 2472, 2473, 2486, 2485
1959, 2252, 2253, 2266, 2265, 2473, 2474, 2487, 2486
1960, 2253, 2254, 2267, 2266, 2474, 2475, 2488, 2487
1961, 2254, 2255, 2268, 2267, 2475, 2476, 2489, 2488
1962, 2255, 2256, 2269, 2268, 2476, 2477, 2490, 2489
1963, 2256, 2257, 2270, 2269, 2477, 2478, 2491, 2490
1964, 2257, 2258, 2271, 2270, 2478, 2479, 2492, 2491
1965, 2258, 2259, 2272, 2271, 2479, 2480, 2493, 2492
1966, 2259, 2260, 2273, 2272, 2480, 2481, 2494, 2493
1967, 2260, 2261, 2274, 2273, 2481, 2482, 2495, 2494
1968, 2261, 2262, 2275, 2274, 2482, 2483, 2496, 2495
1969, 2263, 2264, 2277, 2276, 2484, 2485, 2498, 2497
1970, 2264, 2265, 2278, 2277, 2485, 2486, 2499, 2498
1971, 2265, 2266, 2279, 2278, 2486, 2487, 2500, 2499
1972, 2266, 2267, 2280, 2279, 2487, 2488, 2501, 2500
1973, 2267, 2268, 2281, 2280, 2488, 2489, 2502, 2501
1974, 2268, 2269, 2282, 2281, 2489, 2490, 2503, 2502
1975, 2269, 2270, 2283, 2282, 2490, 2491, 2504, 2503
1976, 2270, 2271, 2284, 2283, 2491, 2492, 2505, 2504
1977, 2271, 2272, 2285, 2284, 2492, 2493, 2506, 2505
1978, 2272, 2273, 2286, 2285, 2493, 2494, 2507, 2506
1979, 2273, 2274, 2287, 2286, 2494, 2495, 2508, 2507
1980, 2274, 2275, 2288, 2287, 2495, 2496, 2509, 2508
1981, 2276, 2277, 2290, 2289, 2497, 2498, 2511, 2510
1982, 2277, 2278, 2291, 2290, 2498, 2499, 2512, 2511
1983, 2278, 2279, 2292, 2291, 2499, 2500, 2513, 2512
1984, 2279, 2280, 2293, 2292, 2500, 2501, 2514, 2513
1985, 2280, 2281, 2294, 2293, 2501, 2502, 2515, 2514
1986, 2281, 2282, 2295, 2294, 2502, 2503, 2516, 2515
1987, 2282, 2283, 2296, 2295, 2503, 2504, 2517, 2516
1988, 2283, 2284, 2297, 2296, 2504, 2505, 2518, 2517
1989, 2284, 2285, 2298, 2297, 2505, 2506, 2519, 2518
1990, 2285, 2286, 2299, 2298, 2506, 2507, 2520, 2519
1991, 2286, 2287, 2300, 2299, 2507, 2508, 2521, 2520
1992, 2287, 2288, 2301, 2300, 2508, 2509, 2522, 2521
1993, 2289, 2290, 2303, 2302, 2510, 2511, 2524, 2523
1994, 2290, 2291, 2304, 2303, 2511, 2512, 2525, 2524
1995, 2291, 2292, 2305, 2304, 2512, 2513, 2526, 2525
1996, 2292, 2293, 2306, 2305, 2513, 2514, 2527, 2526
1997, 2293, 2294, 2307, 2306, 2514, 2515, 2528, 2527
1998, 2294, 2295, 2308, 2307, 2515, 2516, 2529, 2528
1999, 2295, 2296, 2309, 2308, 2516, 2517, 2530, 2529
2000, 2296, 2297, 2310, 2309, 2517, 2518, 2531, 2530
2001, 2297, 2298, 2311, 2310, 2518, 2519, 2532, 2531
2002, 2298, 2299, 2312, 2311, 2519, 2520, 2533, 2532
2003, 2299, 2300, 2313, 2312, 2520, 2521, 2534, 2533
2004, 2300, 2301, 2314, 2313, 2521, 2522, 2535, 2534
2005, 2302, 2303, 2316, 2315, 2523, 2524, 2537, 2536
2006, 2303, 2304, 2317, 2316, 2524, 2525, 2538, 2537
2007, 2304, 2305, 2318, 2317, 2525, 2526, 2539, 2538
2008, 2305, 2306, 2319, 2318, 2526, 2527, 2540, 2539
2009, 2306, 2307, 2320, 2319, 2527, 2528, 2541, 2540
2010, 2307, 2308, 2321, 2320, 2528, 2529, 2542, 2541
2011, 2308, 2309, 2322, 2321, 2529, 2530, 2543, 2542
2012, 2309, 2310, 2323, 2322, 2530, 2531, 2544, 2543
2013, 2310, 2311, 2324, 2323, 2531, 2532, 2545, 2544
2014, 2311, 2312, 2325, 2324, 2532, 2533, 2546, 2545
2015, 2312, 2313, 2326, 2325, 2533, 2534, 2547, 2546
2016, 2313, 2314, 2327, 2326, 2534, 2535, 2548, 2547
2017, 2315, 2316, 2329, 2328, 2536, 2537, 2550, 2549
2018, 2316, 2317, 2330, 2329, 2537, 2538, 2551, 2550
2019, 2317, 2318, 2331, 2330, 2538, 2539, 2552, 2551
2020, 2318, 2319, 2332, 2331, 2539, 2540, 2553, 2552
2021, 2319, 2320, 2333, 2332, 2540, 2541, 2554, 2553
2022, 2320, 2321, 2334, 2333, 2541, 2542, 2555, 2554
2023, 2321, 2322, 2335, 2334, 2542, 2543, 2556, 2555
2024, 2322, 2323, 2336, 2335, 2543, 2544, 2557, 2556
2025, 2323, 2324, 2337, 2336, 2544, 2545, 2558, 2557
2026, 2324, 2325, 2338, 2337, 2545, 2546, 2559, 2558
2027, 2325, 2326, 2339, 2338, 2546, 2547, 2560, 2559
2028, 2326, 2327, 2340, 2339, 2547, 2548, 2561, 2560
2029, 2328, 2329, 2342, 2341, 2549, 2550, 2563, 2562
2030, 2329, 2330, 2343, 2342, 2550, 2551, 2564, 2563
2031, 2330, 2331, 2344, 2343, 2551, 2552, 2565, 2564
2032, 2331, 2332, 2345, 2344, 2552, 2553, 2566, 2565
2033, 2332, 2333, 2346, 2345, 2553, 2554, 2567, 2566
2034, 2333, 2334, 2347, 2346, 2554, 2555, 2568, 2567
2035, 2334, 2335, 2348, 2347, 2555, 2556, 2569, 2568
2036, 2335, 2336, 2349, 2348, 2556, 2557, 2570, 2569
2037, 2336, 2337, 2350, 2349, 2557, 2558, 2571, 2570
2038, 2337, 2338, 2351, 2350, 2558, 2559, 2572, 2571
2039, 2338, 2339, 2352, 2351, 2559, 2560, 2573, 2572
2040, 2339, 2340, 2353, 2352, 2560, 2561, 2574, 2573
2041, 2341, 2342, 2355, 2354, 2562, 2563, 2576, 2575
2042, 2342, 2343, 2356, 2355, 2563, 2564, 2577, 2576
2043, 2343, 2344, 2357, 2356, 2564, 2565, 2578, 2577
2044, 2344, 2345, 2358, 2357, 2565, 2566, 2579, 2578
2045, 2345, 2346, 2359, 2358, 2566, 2567, 2580, 2579
2046, 2346, 2347, 2360, 2359, 2567, 2568, 2581, 2580
2047, 2347, 2348, 2361, 2360, 2568, 2569, 2582, 2581
2048, 2348, 2349, 2362, 2361, 2569, 2570, 2583, 2582
2049, 2349, 2350, 2363, 2362, 2570, 2571, 2584, 2583
2050, 2350, 2351, 2364, 2363, 2571, 2572, 2585, 2584
2051, 2351, 2352, 2365, 2364, 2572, 2573, 2586, 2585
2052, 2352, 2353, 2366, 2365, 2573, 2574, 2587, 2586
2053, 2354, 2355, 2368, 2367, 2575, 2576, 2589, 2588
2054, 2355, 2356, 2369, 2368, 2576, 2577, 2590, 2589
2055, 2356, 2357, 2370, 2369, 2577, 2578, 2591, 2590
2056, 2357, 2358, 2371, 2370, 2578, 2579, 2592, 2591
2057, 2358, 2359, 2372, 2371, 2579, 2580, 2593, 2592
2058, 2359, 2360, 2373, 2372, 2580, 2581, 2594, 2593
2059, 2360, 2361, 2374, 2373, 2581, 2582, 2595, 2594
2060, 2361, 2362, 2375, 2374, 2582, 2583, 2596, 2595
2061, 2362, 2363, 2376, 2375, 2583, 2584, 2597, 2596
2062, 2363, 2364, 2377, 2376, 2584, 2585, 2598, 2597
2063, 2364, 2365, 2378, 2377, 2585, 2586, 2599, 2598
2064, 2365, 2366, 2379, 2378, 2586, 2587, 2600, 2599
2065, 2367, 2368, 2381, 2380, 2588, 2589, 2602, 2601
2066, 2368, 2369, 2382, 2381, 2589, 2590, 2603, 2602
2067, 2369, 2370, 2383, 2382, 2590, 2591, 2604, 2603
2068, 2370, 2371, 2384, 2383, 2591, 2592, 2605, 2604
2069, 2371, 2372, 2385, 2384, 2592, 2593, 2606, 2605
2070, 2372, 2373, 2386, 2385, 2593, 2594, 2607, 2606
2071, 2373, 2374, 2387, 2386, 2594, 2595, 2608, 2607
2072, 2374, 2375, 2388, 2387, 2595, 2596, 2609, 2608
2073, 2375, 2376, 2389, 2388, 2596, 2597, 2610, 2609
2074, 2376, 2377, 2390, 2389, 2597, 2598, 2611, 2610
2075, 2377, 2378, 2391, 2390, 2598, 2599, 2612, 2611
2076, 2378, 2379, 2392, 2391, 2599, 2600, 2613, 2612
2077, 2380, 2381, 2394, 2393, 2601, 2602, 2615, 2614
2078, 2381, 2382, 2395, 2394, 2602, 2603, 2616, 2615
2079, 2382, 2383, 2396, 2395, 2603, 2604, 2617, 2616
2080, 2383, 2384, 2397, 2396, 2604, 2605, 2618, 2617
2081, 2384, 2385, 2398, 2397, 2605, 2606, 2619, 2618
2082, 2385, 2386, 2399, 2398, 2606, 2607, 2620, 2619
2083, 2386, 2387, 2400, 2399, 2607, 2608, 2621, 2620
2084, 2387, 2388, 2401, 2400, 2608, 2609, 2622, 2621
2085, 2388, 2389, 2402, 2401, 2609, 2610, 2623, 2622
2086, 2389, 2390, 2403, 2402, 2610, 2611, 2624, 2623
2087, 2390, 2391, 2404, 2403, 2611, 2612, 2625, 2624
2088, 2391, 2392, 2405, 2404, 2612, 2613, 2626, 2625
2089, 2393, 2394, 2407, 2406, 2614, 2615, 2628, 2627
2090, 2394, 2395, 2408, 2407, 2615, 2616, 2629, 2628
2091, 2395, 2396, 2409, 2408, 2616, 2617, 2630, 2629
2092, 2396, 2397, 2410, 2409, 2617, 2618, 2631, 2630
2093, 2397, 2398, 2411, 2410, 2618, 2619, 2632, 2631
2094, 2398, 2399, 2412, 2411, 2619, 2620, 2633, 2632
2095, 2399, 2400, 2413, 2412, 2620, 2621, 2634, 2633
2096, 2400, 2401, 2414, 2413, 2621, 2622, 2635, 2634
2097, 2401, 2402, 2415, 2414, 2622, 2623, 2636, 2635
2098, 2402, 2403, 2416, 2415, 2623, 2624, 2637, 2636
2099, 2403, 2404, 2417, 2416, 2624, 2625, 2638, 2637
2100, 2404, 2405, 2418, 2417, 2625, 2626, 2639, 2638
2101, 2406, 2407, 2420, 2419, 2627, 2628, 2641, 2640
2102, 2407, 2408, 2421, 2420, 2628, 2629, 2642, 2641
2103, 2408, 2409, 2422, 2421, 2629, 2630, 2643, 2642
2104, 2409, 2410, 2423, 2422, 2630, 2631, 2644, 2643
2105, 2410, 2411, 2424, 2423, 2631, 2632, 2645, 2644
2106, 2411, 2412, 2425, 2424, 2632, 2633, 2646, 2645
2107, 2412, 2413, 2426, 2425, 2633, 2634, 2647, 2646
2108, 2413, 2414, 2427, 2426, 2634, 2635, 2648, 2647
2109, 2414, 2415, 2428, 2427, 2635, 2636, 2649, 2648
2110, 2415, 2416, 2429, 2428, 2636, 2637, 2650, 2649
2111, 2416, 2417, 2430, 2429, 2637, 2638, 2651, 2650
2112, 2417, 2418, 2431, 2430, 2638, 2639, 2652, 2651
2113, 2432, 2433, 2446, 2445, 2653, 2654, 2667, 2666
2114, 2433, 2434, 2447, 2446, 2654, 2655, 2668, 2667
2115, 2434, 2435, 2448, 2447, 2655, 2656, 2669, 2668
2116, 2435, 2436, 2449, 2448, 2656, 2657, 2670, 2669
2117, 2436, 2437, 2450, 2449, 2657, 2658, 2671, 2670
2118, 2437, 2438, 2451, 2450, 2658, 2659, 2672, 2671
2119, 2438, 2439, 2452, 2451, 2659, 2660, 2673, 2672
2120, 2439, 2440, 2453, 2452, 2660, 2661, 2674, 2673
2121, 2440, 2441, 2454, 2453, 2661, 2662, 2675, 2674
2122, 2441, 2442, 2455, 2454, 2662, 2663, 2676, 2675
2123, 2442, 2443, 2456, 2455, 2663, 2664, 2677, 2676
2124, 2443, 2444, 2457, 2456, 2664, 2665, 2678, 2677
2125, 2445, 2446, 2459, 2458, 2666, 2667, 2680, 2679
2126, 2446, 2447, 2460, 2459, 2667, 2668, 2681, 2680
2127, 2447, 2448, 2461, 2460, 2668, 2669, 2682, 2681
2128, 2448, 2449, 2462, 2461, 2669, 2670, 2683, 2682
2129, 2449, 2450, 2463, 2462, 2670, 2671, 2684, 2683
2130, 2450, 2451, 2464, 2463, 2671, 2672, 2685, 2684
2131, 2451, 2452, 2465, 2464, 2672, 2673, 2686, 2685
2132, 2452, 2453, 2466, 2465, 2673, 2674, 2687, 2686
2133, 2453, 2454, 2467, 2466, 2674, 2675, 2688, 2687
2134, 2454, 2455, 2468, 2467, 2675, 2676, 2689, 2688
2135, 2455, 2456, 2469, 2468, 2676, 2677, 2690, 2689
2136, 2456, 2457, 2470, 2469, 2677, 2678, 2691, 2690
2137, 2458, 2459, 2472, 2471, 2679, 2680, 2693, 2692
2138, 2459, 2460, 2473, 2472, 2680, 2681, 2694, 2693
2139, 2460, 2461, 2474, 2473, 2681, 2682, 2695, 2694
2140, 2461, 2462, 2475, 2474, 2682, 2683, 2696, 2695
2141, 2462, 2463, 2476, 2475, 2683, 2684, 2697, 2696
2142, 2463, 2464, 2477, 2476, 2684, 2685, 2698, 2697
2143, 2464, 2465, 2478, 2477, 2685, 2686, 2699, 2698
2144, 2465, 2466, 2479, 2478, 2686, 2687, 2700, 2699
2145, 2466, 2467, 2480, 2479, 2687, 2688, 2701, 2700
2146, 2467, 2468, 2481, 2480, 2688, 2689, 2702, 2701
2147, 2468, 2469, 2482, 2481, 2689, 2690, 2703, 2702
2148, 2469, 2470, 2483, 2482, 2690, 2691, 2704, 2703
2149, 2471, 2472, 2485, 2484, 2692, 2693, 2706, 2705
2150, 2472, 2473, 2486, 2485, 2693, 2694, 2707, 2706
2151, 2473, 2474, 2487, 2486, 2694, 2695, 2708, 2707
2152, 2474, 2475, 2488, 2487, 2695, 2696, 2709, 2708
2153, 2475, 2476, 2489, 2488, 2696, 2697, 2710, 2709
2154, 2476, 2477, 2490, 2489, 2697, 2698, 2711, 2710
2155, 2477, 2478, 2491, 2490, 2698, 2699, 2712, 2711
2156, 2478, 2479, 2492, 2491, 2699, 2700, 2713, 2712
2157, 2479, 2480, 2493, 2492, 2700, 2701, 2714, 2713
2158, 2480, 2481, 2494, 2493, 2701, 2702, 2715, 2714
2159, 2481, 2482, 2495, 2494, 2702, 2703, 2716, 2715
2160, 2482, 2483, 2496, 2495, 2703, 2704, 2717, 2716
2161, 2484, 2485, 2498, 2497, 2705, 2706, 2719, 2718
2162, 2485, 2486, 2499, 2498, 2706, 2707, 2720, 2719
2163, 2486, 2487, 2500, 2499, 2707, 2708, 2721, 2720
2164, 2487, 2488, 2501, 2500, 2708, 2709, 2722, 2721
2165, 2488, 2489, 2502, 2501, 2709, 2710, 2723, 2722
2166, 2489, 2490, 2503, 2502, 2710, 2711, 2724, 2723
2167, 2490, 2491, 2504, 2503, 2711, 2712, 2725, 2724
2168, 2491, 2492, 2505, 2504, 2712, 2713, 2726, 2725
2169, 2492, 2493, 2506, 2505, 2713, 2714, 2727, 2726
2170, 2493, 2494, 2507, 2506, 2714, 2715, 2728, 2727
2171, 2494, 2495, 2508, 2507, 2715, 2716, 2729, 2728
2172, 2495, 2496, 2509, 2508, 2716, 2717, 2730, 2729
2173, 2497, 2498, 2511, 2510, 2718, 2719, 2732, 2731
2174, 2498, 2499, 2512, 2511, 2719, 2720, 2733, 2732
2175, 2499, 2500, 2513, 2512, 2720, 2721, 2734, 2733
2176, 2500, 2501, 2514, 2513, 2721, 2722, 2735, 2734
2177, 2501, 2502, 2515, 2514, 2722, 2723, 2736, 2735
2178, 2502, 2503, 2516, 2515, 2723, 2724, 2737, 2736
2179, 2503, 2504, 2517, 2516, 2724, 2725, 2738, 2737
2180, 2504, 2505, 2518, 2517, 2725, 2726, 2739, 2738
2181, 2505, 2506, 2519, 2518, 2726, 2727, 2740, 2739
2182, 2506, 2507, 2520, 2519, 2727, 2728, 2741, 2740
2183, 2507, 2508, 2521, 2520, 2728, 2729, 2742, 2741
2184, 2508, 2509, 2522, 2521, 2729, 2730, 2743, 2742
2185, 2510, 2511, 2524, 2523, 2731, 2732, 2745, 2744
2186, 2511, 2512, 2525, 2524, 2732, 2733, 2746, 2745
2187, 2512, 2513, 2526, 2525, 2733, 2734, 2747, 2746
2188, 2513, 2514, 2527, 2526, 2734, 2735, 2748, 2747
2189, 2514, 2515, 2528, 2527, 2735, 2736, 2749, 2748
2190, 2515, 2516, 2529, 2528, 2736, 2737, 2750, 2749
2191, 2516, 2517, 2530, 2529, 2737, 2738, 2751, 2750
2192, 2517, 2518, 2531, 2530, 2738, 2739, 2752, 2751
2193, 2518, 2519, 2532, 2531, 2739, 2740, 2753, 2752
2194, 2519, 2520, 2533, 2532, 2740, 2741, 2754, 2753
2195, 2520, 2521, 2534, 2533, 2741, 2742, 2755, 2754
2196, 2521, 2522, 2535, 2534, 2742, 2743, 2756, 2755
2197, 2523, 2524, 2537, 2536, 2744, 2745, 2758, 2757
2198, 2524, 2525, 2538, 2537, 2745, 2746, 2759, 2758
2199, 2525, 2526, 2539, 2538, 2746, 2747, 2760, 2759
2200, 2526, 2527, 2540, 2539, 2747, 2748, 2761, 2760
2201, 2527, 2528, 2541, 2540, 2748, 2749, 2762, 2761
2202, 2528, 2529, 2542, 2541, 2749, 2750, 2763, 2762
2203, 2529, 2530, 2543, 2542, 2750, 2751, 2764, 2763
2204, 2530, 2531, 2544, 2543, 2751, 2752, 2765, 2764
2205, 2531, 2532, 2545, 2544, 2752, 2753, 2766, 2765
2206, 2532, 2533, 2546, 2545, 2753, 2754, 2767, 2766
2207, 2533, 2534, 2547, 2546, 2754, 2755, 2768, 2767
2208, 2534, 2535, 2548, 2547, 2755, 2756, 2769, 2768
2209, 2536, 2537, 2550, 2549, 2757, 2758, 2771, 2770
2210, 2537, 2538, 2551, 2550, 2758, 2759, 2772, 2771
2211, 2538, 2539, 2552, 2551, 2759, 2760, 2773, 2772
2212, 2539, 2540, 2553, 2552, 2760, 2761, 2774, 2773
2213, 2540, 2541, 2554, 2553, 2761, 2762, 2775, 2774
2214, 2541, 2542, 2555, 2554, 2762, 2763, 2776, 2775
2215, 2542, 2543, 2556, 2555, 2763, 2764, 2777, 2776
2216, 2543, 2544, 2557, 2556, 2764, 2765, 2778, 2777
2217, 2544, 2545, 2558, 2557, 2765, 2766, 2779, 2778
2218, 2545, 2546, 2559, 2558, 2766, 2767, 2780, 2779
2219, 2546, 2547, 2560, 2559, 2767, 2768, 2781, 2780
2220, 2547, 2548, 2561, 2560, 2768, 2769, 2782, 2781
2221, 2549, 2550, 2563, 2562, 2770, 2771, 2784, 2783
2222, 2550, 2551, 2564, 2563, 2771, 2772, 2785, 2784
2223, 2551, 2552, 2565, 2564, 2772, 2773, 2786, 2785
2224, 2552, 2553, 2566, 2565, 2773, 2774, 2787, 2786
2225, 2553, 2554, 2567, 2566, 2774, 2775, 2788, 2787
2226, 2554, 2555, 2568, 2567, 2775, 2776, 2789, 2788
2227, 2555, 2556, 2569, 2568, 2776, 2777, 2790, 2789
2228, 2556, 2557, 2570, 2569, 2777, 2778, 2791, 2790
2229, 2557, 2558, 2571, 2570, 2778, 2779, 2792, 2791
2230, 2558, 2559, 2572, 2571, 2779, 2780, 2793, 2792
2231, 2559, 2560, 2573, 2572, 2780, 2781, 2794, 2793
2232, 2560, 2561, 2574, 2573, 2781, 2782, 2795, 2794
2233, 2562, 2563, 2576, 2575, 2783, 2784, 2797, 2796
2234, 2563, 2564, 2577, 2576, 2784, 2785, 2798, 2797
2235, 2564, 2565, 2578, 2577, 2785, 2786, 2799, 2798
2236, 2565, 2566, 2579, 2578, 2786, 2787, 2800, 2799
2237, 2566, 2567, 2580, 2579, 2787, 2788, 2801, 2800
2238, 2567, 2568, 2581, 2580, 2788, 2789, 2802, 2801
2239, 2568, 2569, 2582, 2581, 2789, 2790, 2803, 2802
2240, 2569, 2570, 2583, 2582, 2790, 2791, 2804, 2803
2241, 2570, 2571, 2584, 2583, 2791, 2792, 2805, 2804
2242, 2571, 2572, 2585, 2584, 2792, 2793, 2806, 2805
2243, 2572, 2573, 2586, 2585, 2793, 2794, 2807, 2806
2244, 2573, 2574, 2587, 2586, 2794, 2795, 2808, 2807
2245, 2575, 2576, 2589, 2588, 2796, 2797, 2810, 2809
2246, 2576, 2577, 2590, 2589, 2797, 2798, 2811, 2810
2247, 2577, 2578, 2591, 2590, 2798, 2799, 2812, 2811
2248, 2578, 2579, 2592, 2591, 2799, 2800, 2813, 2812
2249, 2579, 2580, 2593, 2592, 2800, 2801, 2814, 2813
2250, 2580, 2581, 2594, 2593, 2801, 2802, 2815, 2814
2251, 2581, 2582, 2595, 2594, 2802, 2803, 2816, 2815
2252, 2582, 2583, 2596, 2595, 2803, 2804, 2817, 2816
2253, 2583, 2584, 2597, 2596, 2804, 2805, 2818, 2817
2254, 2584, 2585, 2598, 2597, 2805, 2806, 2819, 2818
2255, 2585, 2586, 2599, 2598, 2806, 2807, 2820, 2819
2256, 2586, 2587, 2600, 2599, 2807, 2808, 2821, 2820
2257, 2588, 2589, 2602, 2601, 2809, 2810, 2823, 2822
2258, 2589, 2590, 2603, 2602, 2810, 2811, 2824, 2823
2259, 2590, 2591, 2604, 2603, 2811, 2812, 2825, 2824
2260, 2591, 2592, 2605, 2604, 2812, 2813, 2826, 2825
2261, 2592, 2593, 2606, 2605, 2813, 2814, 2827, 2826
2262, 2593, 2594, 2607, 2606, 2814, 2815, 2828, 2827
2263, 2594, 2595, 2608, 2607, 2815, 2816, 2829, 2828
2264, 2595, 2596, 2609, 2608, 2816, 2817, 2830, 2829
2265, 2596, 2597, 2610, 2609, 2817, 2818, 2831, 2830
2266, 2597, 2598, 2611, 2610, 2818, 2819, 2832, 2831
2267, 2598, 2599, 2612, 2611, 2819, 2820, 2833, 2832
2268, 2599, 2600, 2613, 2612, 2820, 2821, 2834, 2833
2269, 2601, 2602, 2615, 2614, 2822, 2823, 2836, 2835
2270, 2602, 2603, 2616, 2615, 2823, 2824, 2837, 2836
2271, 2603, 2604, 2617, 2616, 2824, 2825, 2838, 2837
2272, 2604, 2605, 2618, 2617, 2825, 2826, 2839, 2838
2273, 2605, 2606, 2619, 2618, 2826, 2827, 2840, 2839
2274, 2606, 2607, 2620, 2619, 2827, 2828, 2841, 2840
2275, 2607, 2608, 2621, 2620, 2828, 2829, 2842, 2841
2276, 2608, 2609, 2622, 2621, 2829, 2830, 2843, 2842
2277, 2609, 2610, 2623, 2622, 2830, 2831, 2844, 2843
2278, 2610, 2611, 2624, 2623, 2831, 2832, 2845, 2844
2279, 2611, 2612, 2625, 2624, 2832, 2833, 2846, 2845
2280, 2612, 2613, 2626, 2625, 2833, 2834, 2847, 2846
2281, 2614, 2615, 2628, 2627, 2835, 2836, 2849, 2848
2282, 2615, 2616, 2629, 2628, 2836, 2837, 2850, 2849
2283, 2616, 2617, 2630, 2629, 2837, 2838, 2851, 2850
2284, 2617, 2618, 2631, 2630, 2838, 2839, 2852, 2851
2285, 2618, 2619, 2632, 2631, 2839, 2840, 2853, 2852
2286, 2619, 2620, 2633, 2632, 2840, 2841, 2854, 2853
2287, 2620, 2621, 2634, 2633, 2841, 2842, 2855, 2854
2288, 2621, 2622, 2635, 2634, 2842, 2843, 2856, 2855
2289, 2622, 2623, 2636, 2635, 2843, 2844, 2857, 2856
2290, 2623, 2624, 2637, 2636, 2844, 2845, 2858, 2857
2291, 2624, 2625, 2638, 2637, 2845, 2846, 2859, 2858
2292, 2625, 2626, 2639, 2638, 2846, 2847, 2860, 2859
2293, 2627, 2628, 2641, 2640, 2848, 2849, 2862, 2861
2294, 2628, 2629, 2642, 2641, 2849, 2850, 2863, 2862
2295, 2629, 2630, 2643, 2642, 2850, 2851, 2864, 2863
2296, 2630, 2631, 2644, 2643, 2851, 2852, 2865, 2864
2297, 2631, 2632, 2645, 2644, 2852, 2853, 2866, 2865
2298, 2632, 2633, 2646, 2645, 2853, 2854, 2867, 2866
2299, 2633, 2634, 2647, 2646, 2854, 2855, 2868, 2867
2300, 2634, 2635, 2648, 2647, 2855, 2856, 2869, 2868
2301, 2635, 2636, 2649, 2648, 2856, 2857, 2870, 2869
2302, 2636, 2637, 2650, 2649, 2857, 2858, 2871, 2870
2303, 2637, 2638, 2651, 2650, 2858, 2859, 2872, 2871
2304, 2638, 2639, 2652, 2651, 2859, 2860, 2873, 2872
2305, 2653, 2654, 2667, 2666, 2874, 2875, 2888, 2887
2306, 2654, 2655, 2668, 2667, 2875, 2876, 2889, 2888
2307, 2655, 2656, 2669, 2668, 2876, 2877, 2890, 2889
2308, 2656, 2657, 2670, 2669, 2877, 2878, 2891, 2890
2309, 2657, 2658, 2671, 2670, 2878, 2879, 2892, 2891
2310, 2658, 2659, 2672, 2671, 2879, 2880, 2893, 2892
2311, 2659, 2660, 2673, 2672, 2880, 2881, 2894, 2893
2312, 2660, 2661, 2674, 2673, 2881, 2882, 2895, 2894
2313, 2661, 2662, 2675, 2674, 2882, 2883, 2896, 2895
2314, 2662, 2663, 2676, 2675, 2883, 2884, 2897, 2896
2315, 2663, 2664, 2677, 2676, 2884, 2885, 2898, 2897
2316, 2664, 2665, 2678, 2677, 2885, 2886, 2899, 2898
2317, 2666, 2667, 2680, 2679, 2887, 2888, 2901, 2900
2318, 2667, 2668, 2681, 2680, 2888, 2889, 2902, 2901
2319, 2668, 2669, 2682, 2681, 2889, 2890, 2903, 2902
2320, 2669, 2670, 2683, 2682, 2890, 2891, 2904, 2903
2321, 2670, 2671, 2684, 2683, 2891, 2892, 2905, 2904
2322, 2671, 2672, 2685, 2684, 2892, 2893, 2906, 2905
2323, 2672, 2673, 2686, 2685, 2893, 2894, 2907, 2906
2324, 2673, 2674, 2687, 2686, 2894, 2895, 2908, 2907
2325, 2674, 2675, 2688, 2687, 2895, 2896, 2909, 2908
2326, 2675, 2676, 2689, 2688, 2896, 2897, 2910, 2909
2327, 2676, 2677, 2690, 2689, 2897, 2898, 2911, 2910
2328, 2677, 2678, 2691, 2690, 2898, 2899, 2912, 2911
2329, 2679, 2680, 2693, 2692, 2900, 2901, 2914, 2913
2330, 2680, 2681, 2694, 2693, 2901, 2902, 2915, 2914
2331, 2681, 2682, 2695, 2694, 2902, 2903, 2916, 2915
2332, 2682, 2683, 2696, 2695, 2903, 2904, 2917, 2916
2333, 2683, 2684, 2697, 2696, 2904, 2905, 2918, 2917
2334, 2684, 2685, 2698, 2697, 2905, 2906, 2919, 2918
2335, 2685, 2686, 2699, 2698, 2906, 2907, 2920, 2919
2336, 2686, 2687, 2700, 2699, 2907, 2908, 2921, 2920
2337, 2687, 2688, 2701, 2700, 2908, 2909, 2922, 2921
2338, 2688, 2689, 2702, 2701, 2909, 2910, 2923, 2922
2339, 2689, 2690, 2703, 2702, 2910, 2911, 2924, 2923
2340, 2690, 2691, 2704, 2703, 2911, 2912, 2925, 2924
2341, 2692, 2693, 2706, 2705, 2913, 2914, 2927, 2926
2342, 2693, 2694, 2707, 2706, 2914, 2915, 2928, 2927
2343, 2694, 2695, 2708, 2707, 2915, 2916, 2929, 2928
2344, 2695, 2696, 2709, 2708, 2916, 2917, 2930, 2929
2345, 2696, 2697, 2710, 2709, 2917, 2918, 2931, 2930
2346, 2697, 2698, 2711, 2710, 2918, 2919, 2932, 2931
2347, 2698, 2699, 2712, 2711, 2919, 2920, 2933, 2932
2348, 2699, 2700, 2713, 2712, 2920, 2921, 2934, 2933
2349, 2700, 2701, 2714, 2713, 2921, 2922, 2935, 2934
2350, 2701, 2702, 2715, 2714, 2922, 2923, 2936, 2935
2351, 2702, 2703, 2716, 2715, 2923, 2924, 2937, 2936
2352, 2703, 2704, 2717, 2716, 2924, 2925, 2938, 2937
2353, 2705, 2706, 2719, 2718, 2926, 2927, 2940, 2939
2354, 2706, 2707, 2720, 2719, 2927, 2928, 2941, 2940
2355, 2707, 2708, 2721, 2720, 2928, 2929, 2942, 2941
2356, 2708, 2709, 2722, 2721, 2929, 2930, 2943, 2942
2357, 2709, 2710, 2723, 2722, 2930, 2931, 2944, 2943
2358, 2710, 2711, 2724, 2723, 2931, 2932, 2945, 2944
2359, 2711, 2712, 2725, 2724, 2932, 2933, 2946, 2945
2360, 2712, 2713, 2726, 2725, 2933, 2934, 2947, 2946
2361, 2713, 2714, 2727, 2726, 2934, 2935, 2948, 2947
2362, 2714, 2715, 2728, 2727, 2935, 2936, 2949, 2948
2363, 2715, 2716, 2729, 2728, 2936, 2937, 2950, 2949
2364, 2716, 2717, 2730, 2729, 2937, 2938, 2951, 2950
2365, 2718, 2719, 2732, 2731, 2939, 2940, 2953, 2952
2366, 2719, 2720, 2733, 2732, 2940, 2941, 2954, 2953
2367, 2720, 2721, 2734, 2733, 2941, 2942, 2955, 2954
2368, 2721, 2722, 2735, 2734, 2942, 2943, 2956, 2955
2369, 2722, 2723, 2736, 2735, 2943, 2944, 2957, 2956
2370, 2723, 2724, 2737, 2736, 2944, 2945, 2958, 2957
2371, 2724, 2725, 2738, 2737, 2945, 2946, 2959, 2958
2372, 2725, 2726, 2739, 2738, 2946, 2947, 2960, 2959
2373, 2726, 2727, 2740, 2739, 2947, 2948, 2961, 2960
2374, 2727, 2728, 2741, 2740, 2948, 2949, 2962, 2961
2375, 2728, 2729, 2742, 2741, 2949, 2950, 2963, 2962
2376, 2729, 2730, 2743, 2742, 2950, 2951, 2964, 2963
2377, 2731, 2732, 2745, 2744, 2952, 2953, 2966, 2965
2378, 2732, 2733, 2746, 2745, 2953, 2954, 2967, 2966
2379, 2733, 2734, 2747, 2746, 2954, 2955, 2968, 2967
2380, 2734, 2735, 2748, 2747, 2955, 2956, 2969, 2968
2381, 2735, 2736, 2749, 2748, 2956, 2957, 2970, 2969
2382, 2736, 2737, 2750, 2749, 2957, 2958, 2971, 2970
2383, 2737, 2738, 2751, 2750, 2958, 2959, 2972, 2971
2384, 2738, 2739, 2752, 2751, 2959, 2960, 2973, 2972
2385, 2739, 2740, 2753, 2752, 2960, 2961, 2974, 2973
2386, 2740, 2741, 2754, 2753, 2961, 2962, 2975, 2974
2387, 2741, 2742, 2755, 2754, 2962, 2963, 2976, 2975
2388, 2742, 2743, 2756, 2755, 2963, 2964, 2977, 2976
2389, 2744, 2745, 2758, 2757, 2965, 2966, 2979, 2978
2390, 2745, 2746, 2759, 2758, 2966, 2967, 2980, 2979
2391, 2746, 2747, 2760, 2759, 2967, 2968, 2981, 2980
2392, 2747, 2748, 2761, 2760, 2968, 2969, 2982, 2981
2393, 2748, 2749, 2762, 2761, 2969, 2970, 2983, 2982
2394, 2749, 2750, 2763, 2762, 2970, 2971, 2984, 2983
2395, 2750, 2751, 2764, 2763, 2971, 2972, 2985, 2984
2396, 2751, 2752, 2765, 2764, 2972, 2973, 2986, 2985
2397, 2752, 2753, 2766, 2765, 2973, 2974, 2987, 2986
2398, 2753, 2754, 2767, 2766, 2974, 2975, 2988, 2987
2399, 2754, 2755, 2768, 2767, 2975, 2976, 2989, 2988
2400, 2755, 2756, 2769, 2768, 2976, 2977, 2990, 2989
2401, 2757, 2758, 2771, 2770, 2978, 2979, 2992, 2991
2402, 2758, 2759, 2772, 2771, 2979, 2980, 2993, 2992
2403, 2759, 2760, 2773, 2772, 2980, 2981, 2994, 2993
2404, 2760, 2761, 2774, 2773, 2981, 2982, 2995, 2994
2405, 2761, 2762, 2775, 2774, 2982, 2983, 2996, 2995
2406, 2762, 2763, 2776, 2775, 2983, 2984, 2997, 2996
2407, 2763, 2764, 2777, 2776, 2984, 2985, 2998, 2997
2408, 2764, 2765, 2778, 2777, 2985, 2986, 2999, 2998
2409, 2765, 2766, 2779, 2778, 2986, 2987, 3000, 2999
2410, 2766, 2767, 2780, 2779, 2987, 2988, 3001, 3000
2411, 2767, 2768, 2781, 2780, 2988, 2989, 3002, 3001
2412, 2768, 2769, 2782, 2781, 2989, 2990, 3003, 3002
2413, 2770, 2771, 2784, 2783, 2991, 2992, 3005, 3004
2414, 2771, 2772, 2785, 2784, 2992, 2993, 3006, 3005
2415, 2772, 2773, 2786, 2785, 2993, 2994, 3007, 3006
2416, 2773, 2774, 2787, 2786, 2994, 2995, 3008, 3007
2417, 2774, 2775, 2788, 2787, 2995, 2996, 3009, 3008
2418, 2775, 2776, 2789, 2788, 2996, 2997, 3010, 3009
2419, 2776, 2777, 2790, 2789, 2997, 2998, 3011, 3010
2420, 2777, 2778, 2791, 2790, 2998, 2999, 3012, 3011
2421, 2778, 2779, 2792, 2791, 2999, 3000, 3013, 3012
2422, 2779, 2780, 2793, 2792, 3000, 3001, 3014, 3013
2423, 2780, 2781, 2794, 2793, 3001, 3002, 3015, 3014
2424, 2781, 2782, 2795, 2794, 3002, 3003, 3016, 3015
2425, 2783, 2784, 2797, 2796, 3004, 3005, 3018, 3017
2426, 2784, 2785, 2798, 2797, 3005, 3006, 3019, 3018
2427, 2785, 2786, 2799, 2798, 3006, 3007, 3020, 3019
2428, 2786, 2787, 2800, 2799, 3007, 3008, 3021, 3020
2429, 2787, 2788, 2801, 2800, 3008, 3009, 3022, 3021
2430, 2788, 2789, 2802, 2801, 3009, 3010, 3023, 3022
2431, 2789, 2790, 2803, 2802, 3010, 3011, 3024, 3023
2432, 2790, 2791, 2804, 2803, 3011, 3012, 3025, 3024
2433, 2791, 2792, 2805, 2804, 3012, 3013, 3026, 3025
2434, 2792, 2793, 2806, 2805, 3013, 3014, 3027, 3026
2435, 2793, 2794, 2807, 2806, 3014, 3015, 3028, 3027
2436, 2794, 2795, 2808, 2807, 3015, 3016, 3029, 3028
2437, 2796, 2797, 2810, 2809, 3017, 3018, 3031, 3030
2438, 2797, 2798, 2811, 2810, 3018, 3019, 3032, 3031
2439, 2798, 2799, 2812, 2811, 3019, 3020, 3033, 3032
2440, 2799, 2800, 2813, 2812, 3020, 3021, 3034, 3033
2441, 2800, 2801, 2814, 2813, 3021, 3022, 3035, 3034
2442, 2801, 2802, 2815, 2814, 3022, 3023, 3036, 3035
2443, 2802, 2803, 2816, 2815, 3023, 3024, 3037, 3036
2444, 2803, 2804, 2817, 2816, 3024, 3025, 3038, 3037
2445, 2804, 2805, 2818, 2817, 3025, 3026, 3039, 3038
2446, 2805, 2806, 2819, 2818, 3026, 3027, 3040, 3039
2447, 2806, 2807, 2820, 2819, 3027, 3028, 3041, 3040
2448, 2807, 2808, 2821, 2820, 3028, 3029, 3042, 3041
2449, 2809, 2810, 2823, 2822, 3030, 3031, 3044, 3043
2450, 2810, 2811, 2824, 2823, 3031, 3032, 3045, 3044
2451, 2811, 2812, 2825, 2824, 3032, 3033, 3046, 3045
2452, 2812, 2813, 2826, 2825, 3033, 3034, 3047, 3046
2453, 2813, 2814, 2827, 2826, 3034, 3035, 3048, 3047
2454, 2814, 2815, 2828, 2827, 3035, 3036, 3049, 3048
2455, 2815, 2816, 2829, 2828, 3036, 3037, 3050, 3049
2456, 2816, 2817, 2830, 2829, 3037, 3038, 3051, 3050
2457, 2817, 2818, 2831, 2830, 3038, 3039, 3052, 3051
2458, 2818, 2819, 2832, 2831, 3039, 3040, 3053, 3052
2459, 2819, 2820, 2833, 2832, 3040, 3041, 3054, 3053
2460, 2820, 2821, 2834, 2833, 3041, 3042, 3055, 3054
2461, 2822, 2823, 2836, 2835, 3043, 3044, 3057, 3056
2462, 2823, 2824, 2837, 2836, 3044, 3045, 3058, 3057
2463, 2824, 2825, 2838, 2837, 3045, 3046, 3059, 3058
2464, 2825, 2826, 2839, 2838, 3046, 3047, 3060, 3059
2465, 2826, 2827, 2840, 2839, 3047, 3048, 3061, 3060
2466, 2827, 2828, 2841, 2840, 3048, 3049, 3062, 3061
2467, 2828, 2829, 2842, 2841, 3049, 3050, 3063, 3062
2468, 2829, 2830, 2843, 2842, 3050, 3051, 3064, 3063
2469, 2830, 2831, 2844, 2843, 3051, 3052, 3065, 3064
2470, 2831, 2832, 2845, 2844, 3052, 3053, 3066, 3065
2471, 2832, 2833, 2846, 2845, 3053, 3054, 3067, 3066
2472, 2833, 2834, 2847, 2846, 3054, 3055, 3068, 3067
2473, 2835, 2836, 2849, 2848, 3056, 3057, 3070, 3069
2474, 2836, 2837, 2850, 2849, 3057, 3058, 3071, 3070
2475, 2837, 2838, 2851, 2850, 3058, 3059, 3072, 3071
2476, 2838, 2839, 2852, 2851, 3059, 3060, 3073, 3072
2477, 2839, 2840, 2853, 2852, 3060, 3061, 3074, 3073
2478, 2840, 2841, 2854, 2853, 3061, 3062, 3075, 3074
2479, 2841, 2842, 2855, 2854, 3062, 3063, 3076, 3075
2480, 2842, 2843, 2856, 2855, 3063, 3064, 3077, 3076
2481, 2843, 2844, 2857, 2856, 3064, 3065, 3078, 3077
2482, 2844, 2845, 2858, 2857, 3065, 3066, 3079, 3078
2483, 2845, 2846, 2859, 2858, 3066, 3067, 3080, 3079
2484, 2846, 2847, 2860, 2859, 3067, 3068, 3081, 3080
2485, 2848, 2849, 2862, 2861, 3069, 3070, 3083, 3082
2486, 2849, 2850, 2863, 2862, 3070, 3071, 3084, 3083
2487, 2850, 2851, 2864, 2863, 3071, 3072, 3085, 3084
2488, 2851, 2852, 2865, 2864, 3072, 3073, 3086, 3085
2489, 2852, 2853, 2866, 2865, 3073, 3074, 3087, 3086
2490, 2853, 2854, 2867, 2866, 3074, 3075, 3088, 3087
2491, 2854, 2855, 2868, 2867, 3075, 3076, 3089, 3088
2492, 2855, 2856, 2869, 2868, 3076, 3077, 3090, 3089
2493, 2856, 2857, 2870, 2869, 3077, 3078, 3091, 3090
2494, 2857, 2858, 2871, 2870, 3078, 3079, 3092, 3091
2495, 2858, 2859, 2872, 2871, 3079, 3080, 3093, 3092
2496, 2859, 2860, 2873, 2872, 3080, 3081, 3094, 3093
2497, 2874, 2875, 2888, 2887, 3095, 3096, 3109, 3108
2498, 2875, 2876, 2889, 2888, 3096, 3097, 3110, 3109
2499, 2876, 2877, 2890, 2889, 3097, 3098, 3111, 3110
2500, 2877, 2878, 2891, 2890, 3098, 3099, 3112, 3111
2501, 2878, 2879, 2892, 2891, 3099, 3100, 3113, 3112
2502, 2879, 2880, 2893, 2892, 3100, 3101, 3114, 3113
2503, 2880, 2881, 2894, 2893, 3101, 3102, 3115, 3114
2504, 2881, 2882, 2895, 2894, 3102, 3103, 3116, 3115
2505, 2882, 2883, 2896, 2895, 3103, 3104, 3117, 3116
2506, 2883, 2884, 2897, 2896, 3104, 3105, 3118, 3117
2507, 2884, 2885, 2898, 2897, 3105, 3106, 3119, 3118
2508, 2885, 2886, 2899, 2898, 3106, 3107, 3120, 3119
2509, 2887, 2888, 2901, 2900, 3108, 3109, 3122, 3121
2510, 2888, 2889, 2902, 2901, 3109, 3110, 3123, 3122
2511, 2889, 2890, 2903, 2902, 3110, 3111, 3124, 3123
2512, 2890, 2891, 2904, 2903, 3111, 3112, 3125, 3124
2513, 2891, 2892, 2905, 2904, 3112, 3113, 3126, 3125
2514, 2892, 2893, 2906, 2905, 3113, 3114, 3127, 3126
2515, 2893, 2894, 2907, 2906, 3114, 3115, 3128, 3127
2516, 2894, 2895, 2908, 2907, 3115, 3116, 3129, 3128
2517, 2895, 2896, 2909, 2908, 3116, 3117, 3130, 3129
2518, 2896, 2897, 2910, 2909, 3117, 3118, 3131, 3130
2519, 2897, 2898, 2911, 2910, 3118, 3119, 3132, 3131
2520, 2898, 2899, 2912, 2911, 3119, 3120, 3133, 3132
2521, 2900, 2901, 2914, 2913, 3121, 3122, 3135, 3134
2522, 2901, 2902, 2915, 2914, 3122, 3123, 3136, 3135
2523, 2902, 2903, 2916, 2915, 3123, 3124, 3137, 3136
2524, 2903, 2904, 2917, 2916, 3124, 3125, 3138, 3137
2525, 2904, 2905, 2918, 2917, 3125, 3126, 3139, 3138
2526, 2905, 2906, 2919, 2918, 3126, 3127, 3140, 3139
2527, 2906, 2907, 2920, 2919, 3127, 3128, 3141, 3140
2528, 2907, 2908, 2921, 2920, 3128, 3129, 3142, 3141
2529, 2908, 2909, 2922, 2921, 3129, 3130, 3143, 3142
2530, 2909, 2910, 2923, 2922, 3130, 3131, 3144, 3143
2531, 2910, 2911, 2924, 2923, 3131, 3132, 3145, 3144
2532, 2911, 2912, 2925, 2924, 3132, 3133, 3146, 3145
2533, 2913, 2914, 2927, 2926, 3134, 3135, 3148, 3147
2534, 2914, 2915, 2928, 2927, 3135, 3136, 3149, 3148
2535, 2915, 2916, 2929, 2928, 3136, 3137, 3150, 3149
2536, 2916, 2917, 2930, 2929, 3137, 3138, 3151, 3150
2537, 2917, 2918, 2931, 2930, 3138, 3139, 3152, 3151
2538, 2918, 2919, 2932, 2931, 3139, 3140, 3153, 3152
2539, 2919, 2920, 2933, 2932, 3140, 3141, 3154, 3153
2540, 2920, 2921, 2934, 2933, 3141, 3142, 3155, 3154
2541, 2921, 2922, 2935, 2934, 3142, 3143, 3156, 3155
2542, 2922, 2923, 2936, 2935, 3143, 3144, 3157, 3156
2543, 2923, 2924, 2937, 2936, 3144, 3145, 3158, 3157
2544, 2924, 2925, 2938, 2937, 3145, 3146, 3159, 3158
2545, 2926, 2927, 2940, 2939, 3147, 3148, 3161, 3160
2546, 2927, 2928, 2941, 2940, 3148, 3149, 3162, 3161
2547, 2928, 2929, 2942, 2941, 3149, 3150, 3163, 3162
2548, 2929, 2930, 2943, 2942, 3150, 3151, 3164, 3163
2549, 2930, 2931, 2944, 2943, 3151, 3152, 3165, 3164
2550, 2931, 2932, 2945, 2944, 3152, 3153, 3166, 3165
2551, 2932, 2933, 2946, 2945, 3153, 3154, 3167, 3166
2552, 2933, 2934, 2947, 2946, 3154, 3155, 3168, 3167
2553, 2934, 2935, 2948, 2947, 3155, 3156, 3169, 3168
2554, 2935, 2936, 2949, 2948, 3156, 3157, 3170, 3169
2555, 2936, 2937, 2950, 2949, 3157, 3158, 3171, 3170
2556, 2937, 2938, 2951, 2950, 3158, 3159, 3172, 3171
2557, 2939, 2940, 2953, 2952, 3160, 3161, 3174, 3173
2558, 2940, 2941, 2954, 2953, 3161, 3162, 3175, 3174
2559, 2941, 2942, 2955, 2954, 3162, 3163, 3176, 3175
2560, 2942, 2943, 2956, 2955, 3163, 3164, 3177, 3176
2561, 2943, 2944, 2957, 2956, 3164, 3165, 3178, 3177
2562, 2944, 2945, 2958, 2957, 3165, 3166, 3179, 3178
2563, 2945, 2946, 2959, 2958, 3166, 3167, 3180, 3179
2564, 2946, 2947, 2960, 2959, 3167, 3168, 3181, 3180
2565, 2947, 2948, 2961, 2960, 3168, 3169, 3182, 3181
2566, 2948, 2949, 2962, 2961, 3169, 3170, 3183, 3182
2567, 2949, 2950, 2963, 2962, 3170, 3171, 3184, 3183
2568, 2950, 2951, 2964, 2963, 3171, 3172, 3185, 3184
2569, 2952, 2953, 2966, 2965, 3173, 3174, 3187, 3186
2570, 2953, 2954, 2967, 2966, 3174, 3175, 3188, 3187
2571, 2954, 2955, 2968, 2967, 3175, 3176, 3189, 3188
2572, 2955, 2956, 2969, 2968, 3176, 3177, 3190, 3189
2573, 2956, 2957, 2970, 2969, 3177, 3178, 3191, 3190
2574, 2957, 2958, 2971, 2970, 3178, 3179, 3192, 3191
2575, 2958, 2959, 2972, 2971, 3179, 3180, 3193, 3192
2576, 2959, 2960, 2973, 2972, 3180, 3181, 3194, 3193
2577, 2960, 2961, 2974, 2973, 3181, 3182, 3195, 3194
2578, 2961, 2962, 2975, 2974, 3182, 3183, 3196, 3195
2579, 2962, 2963, 2976, 2975, 3183, 3184, 3197, 3196
2580, 2963, 2964, 2977, 2976, 3184, 3185, 3198, 3197
2581, 2965, 2966, 2979, 2978, 3186, 3187, 3200, 3199
2582, 2966, 2967, 2980, 2979, 3187, 3188, 3201, 3200
2583, 2967, 2968, 2981, 2980, 3188, 3189, 3202, 3201
2584, 2968, 2969, 2982, 2981, 3189, 3190, 3203, 3202
2585, 2969, 2970, 2983, 2982, 3190, 3191, 3204, 3203
2586, 2970, 2971, 2984, 2983, 3191, 3192, 3205, 3204
2587, 2971, 2972, 2985, 2984, 3192, 3193, 3206, 3205
2588, 2972, 2973, 2986, 2985, 3193, 3194, 3207, 3206
2589, 2973, 2974, 2987, 2986, 3194, 3195, 3208, 3207
2590, 2974, 2975, 2988, 2987, 3195, 3196, 3209, 3208
2591, 2975, 2976, 2989, 2988, 3196, 3197, 3210, 3209
2592, 2976, 2977, 2990, 2989, 3197, 3198, 3211, 3210
2593, 2978, 2979, 2992, 2991, 3199, 3200, 3213, 3212
2594, 2979, 2980, 2993, 2992, 3200, 3201, 3214, 3213
2595, 2980, 2981, 2994, 2993, 3201, 3202, 3215, 3214
2596, 2981, 2982, 2995, 2994, 3202, 3203, 3216, 3215
2597, 2982, 2983, 2996, 2995, 3203, 3204, 3217, 3216
2598, 2983, 2984, 2997, 2996, 3204, 3205, 3218, 3217
2599, 2984, 2985, 2998, 2997, 3205, 3206, 3219, 3218
2600, 2985, 2986, 2999, 2998, 3206, 3207, 3220, 3219
2601, 2986, 2987, 3000, 2999, 3207, 3208, 3221, 3220
2602, 2987, 2988, 3001, 3000, 3208, 3209, 3222, 3221
2603, 2988, 2989, 3002, 3001, 3209, 3210, 3223, 3222
2604, 2989, 2990, 3003, 3002, 3210, 3211, 3224, 3223
2605, 2991, 2992, 3005, 3004, 3212, 3213, 3226, 3225
2606, 2992, 2993, 3006, 3005, 3213, 3214, 3227, 3226
2607, 2993, 2994, 3007, 3006, 3214, 3215, 3228, 3227
2608, 2994, 2995, 3008, 3007, 3215, 3216, 3229, 3228
2609, 2995, 2996, 3009, 3008, 3216, 3217, 3230, 3229
2610, 2996, 2997, 3010, 3009, 3217, 3218, 3231, 3230
2611, 2997, 2998, 3011, 3010, 3218, 3219, 3232, 3231
2612, 2998, 2999, 3012, 3011, 3219, 3220, 3233, 3232
2613, 2999, 3000, 3013, 3012, 3220, 3221, 3234, 3233
2614, 3000, 3001, 3014, 3013, 3221, 3222, 3235, 3234
2615, 3001, 3002, 3015, 3014, 3222, 3223, 3236, 3235
2616, 3002, 3003, 3016, 3015, 3223, 3224, 3237, 3236
2617, 3004, 3005, 3018, 3017, 3225, 3226, 3239, 3238
2618, 3005, 3006, 3019, 3018, 3226, 3227, 3240, 3239
2619, 3006, 3007, 3020, 3019, 3227, 3228, 3241, 3240
2620, 3007, 3008, 3021, 3020, 3228, 3229, 3242, 3241
2621, 3008, 3009, 3022, 3021, 3229, 3230, 3243, 3242
2622, 3009, 3010, 3023, 3022, 3230, 3231, 3244, 3243
2623, 3010, 3011, 3024, 3023, 3231, 3232, 3245, 3244
2624, 3011, 3012, 3025, 3024, 3232, 3233, 3246, 3245
2625, 3012, 3013, 3026, 3025, 3233, 3234, 3247, 3246
2626, 3013, 3014, 3027, 3026, 3234, 3235, 3248, 3247
2627, 3014, 3015, 3028, 3027, 3235, 3236, 3249, 3248
2628, 3015, 3016, 3029, 3028, 3236, 3237, 3250, 3249
2629, 3017, 3018, 3031, 3030, 3238, 3239, 3252, 3251
2630, 3018, 3019, 3032, 3031, 3239, 3240, 3253, 3252
2631, 3019, 3020, 3033, 3032, 3240, 3241, 3254, 3253
2632, 3020, 3021, 3034, 3033, 3241, 3242, 3255, 3254
2633, 3021, 3022, 3035, 3034, 3242, 3243, 3256, 3255
2634, 3022, 3023, 3036, 3035, 3243, 3244, 3257, 3256
2635, 3023, 3024, 3037, 3036, 3244, 3245, 3258, 3257
2636, 3024, 3025, 3038, 3037, 3245, 3246, 3259, 3258
2637, 3025, 3026, 3039, 3038, 3246, 3247, 3260, 3259
2638, 3026, 3027, 3040, 3039, 3247, 3248, 3261, 3260
2639, 3027, 3028, 3041, 3040, 3248, 3249, 3262, 3261
2640, 3028, 3029, 3042, 3041, 3249, 3250, 3263, 3262
2641, 3030, 3031, 3044, 3043, 3251, 3252, 3265, 3264
2642, 3031, 3032, 3045, 3044, 3252, 3253, 3266, 3265
2643, 3032, 3033, 3046, 3045, 3253, 3254, 3267, 3266
2644, 3033, 3034, 3047, 3046, 3254, 3255, 3268, 3267
2645, 3034, 3035, 3048, 3047, 3255, 3256, 3269, 3268
2646, 3035, 3036, 3049, 3048, 3256, 3257, 3270, 3269
2647, 3036, 3037, 3050, 3049, 3257, 3258, 3271, 3270
2648, 3037, 3038, 3051, 3050, 3258, 3259, 3272, 3271
2649, 3038, 3039, 3052, 3051, 3259, 3260, 3273, 3272
2650, 3039, 3040, 3053, 3052, 3260, 3261, 3274, 3273
2651, 3040, 3041, 3054, 3053, 3261, 3262, 3275, 3274
2652, 3041, 3042, 3055, 3054, 3262, 3263, 3276, 3275
2653, 3043, 3044, 3057, 3056, 3264, 3265, 3278, 3277
2654, 3044, 3045, 3058, 3057, 3265, 3266, 3279, 3278
2655, 3045, 3046, 3059, 3058, 3266, 3267, 3280, 3279
2656, 3046, 3047, 3060, 3059, 3267, 3268, 3281, 3280
2657, 3047, 3048, 3061, 3060, 3268, 3269, 3282, 3281
2658, 3048, 3049, 3062, 3061, 3269, 3270, 3283, 3282
2659, 3049, 3050, 3063, 3062, 3270, 3271, 3284, 3283
2660, 3050, 3051, 3064, 3063, 3271, 3272, 3285, 3284
2661, 3051, 3052, 3065, 3064, 3272, 3273, 3286, 3285
2662, 3052, 3053, 3066, 3065, 3273, 3274, 3287, 3286
2663, 3053, 3054, 3067, 3066, 3274, 3275, 3288, 3287
2664, 3054, 3055, 3068, 3067, 3275, 3276, 3289, 3288
2665, 3056, 3057, 3070, 3069, 3277, 3278, 3291, 3290
2666, 3057, 3058, 3071, 3070, 3278, 3279, 3292, 3291
2667, 3058, 3059, 3072, 3071, 3279, 3280, 3293, 3292
2668, 3059, 3060, 3073, 3072, 3280, 3281, 3294, 3293
2669, 3060, 3061, 3074, 3073, 3281, 3282, 3295, 3294
2670, 3061, 3062, 3075, 3074, 3282, 3283, 3296, 3295
2671, 3062, 3063, 3076, 3075, 3283, 3284, 3297, 3296
2672, 3063, 3064, 3077, 3076, 3284, 3285, 3298, 3297
2673, 3064, 3065, 3078, 3077, 3285, 3286, 3299, 3298
2674, 3065, 3066, 3079, 3078, 3286, 3287, 3300, 3299
2675, 3066, 3067, 3080, 3079, 3287, 3288, 3301, 3300
2676, 3067, 3068, 3081, 3080, 3288, 3289, 3302, 3301
2677, 3069, 3070, 3083, 3082, 3290, 3291, 3304, 3303
2678, 3070, 3071, 3084, 3083, 3291, 3292, 3305, 3304
2679, 3071, 3072, 3085, 3084, 3292, 3293, 3306, 3305
2680, 3072, 3073, 3086, 3085, 3293, 3294, 3307, 3306
2681, 3073, 3074, 3087, 3086, 3294, 3295, 3308, 3307
2682, 3074, 3075, 3088, 3087, 3295, 3296, 3309, 3308
2683, 3075, 3076, 3089, 3088, 3296, 3297, 3310, 3309
2684, 3076, 3077, 3090, 3089, 3297, 3298, 3311, 3310
2685, 3077, 3078, 3091, 3090, 3298, 3299, 3312, 3311
2686, 3078, 3079, 3092, 3091, 3299, 3300, 3313, 3312
2687, 3079, 3080, 3093, 3092, 3300, 3301, 3314, 3313
2688, 3080, 3081, 3094, 3093, 3301, 3302, 3315, 3314
2689, 3095, 3096, 3109, 3108, 3316, 3317, 3330, 3329
2690, 3096, 3097, 3110, 3109, 3317, 3318, 3331, 3330
2691, 3097, 3098, 3111, 3110, 3318, 3319, 3332, 3331
2692, 3098, 3099, 3112, 3111, 3319, 3320, 3333, 3332
2693, 3099, 3100, 3113, 3112, 3320, 3321, 3334, 3333
2694, 3100, 3101, 3114, 3113, 3321, 3322, 3335, 3334
2695, 3101, 3102, 3115, 3114, 3322, 3323, 3336, 3335
2696, 3102, 3103, 3116, 3115, 3323, 3324, 3337, 3336
2697, 3103, 3104, 3117, 3116, 3324, 3325, 3338, 3337
2698, 3104, 3105, 3118, 3117, 3325, 3326, 3339, 3338
2699, 3105, 3106, 3119, 3118, 3326, 3327, 3340, 3339
2700, 3106, 3107, 3120, 3119, 3327, 3328, 3341, 3340
2701, 3108, 3109, 3122, 3121, 3329, 3330, 3343, 3342
2702, 3109, 3110, 3123, 3122, 3330, 3331, 3344, 3343
2703, 3110, 3111, 3124, 3123, 3331, 3332, 3345, 3344
2704, 3111, 3112, 3125, 3124, 3332, 3333, 3346, 3345
2705, 3112, 3113, 3126, 3125, 3333, 3334, 3347, 3346
2706, 3113, 3114, 3127, 3126, 3334, 3335, 3348, 3347
2707, 3114, 3115, 3128, 3127, 3335, 3336, 3349, 3348
2708, 3115, 3116, 3129, 3128, 3336, 3337, 3350, 3349
2709, 3116, 3117, 3130, 3129, 3337, 3338, 3351, 3350
2710, 3117, 3118, 3131, 3130, 3338, 3339, 3352, 3351
2711, 3118, 3119, 3132, 3131, 3339, 3340, 3353, 3352
2712, 3119, 3120, 3133, 3132, 3340, 3341, 3354, 3353
2713, 3121, 3122, 3135, 3134, 3342, 3343, 3356, 3355
2714, 3122, 3123, 3136, 3135, 3343, 3344, 3357, 3356
2715, 3123, 3124, 3137, 3136, 3344, 3345, 3358, 3357
2716, 3124, 3125, 3138, 3137, 3345, 3346, 3359, 3358
2717, 3125, 3126, 3139, 3138, 3346, 3347, 3360, 3359
2718, 3126, 3127, 3140, 3139, 3347, 3348, 3361, 3360
2719, 3127, 3128, 3141, 3140, 3348, 3349, 3362, 3361
2720, 3128, 3129, 3142, 3141, 3349, 3350, 3363, 3362
2721, 3129, 3130, 3143, 3142, 3350, 3351, 3364, 3363
2722, 3130, 3131, 3144, 3143, 3351, 3352, 3365, 3364
2723, 3131, 3132, 3145, 3144, 3352, 3353, 3366, 3365
2724, 3132, 3133, 3146, 3145, 3353, 3354, 3367, 3366
2725, 3134, 3135, 3148, 3147, 3355, 3356, 3369, 3368
2726, 3135, 3136, 3149, 3148, 3356, 3357, 3370, 3369
2727, 3136, 3137, 3150, 3149, 3357, 3358, 3371, 3370
2728, 3137, 3138, 3151, 3150, 3358, 3359, 3372, 3371
2729, 3138, 3139, 3152, 3151, 3359, 3360, 3373, 3372
2730, 3139, 3140, 3153, 3152, 3360, 3361, 3374, 3373
2731, 3140, 3141, 3154, 3153, 3361, 3362, 3375, 3374
2732, 3141, 3142, 3155, 3154, 3362, 3363, 3376, 3375
2733, 3142, 3143, 3156, 3155, 3363, 3364, 3377, 3376
2734, 3143, 3144, 3157, 3156, 3364, 3365, 3378, 3377
2735, 3144, 3145, 3158, 3157, 3365, 3366, 3379, 3378
2736, 3145, 3146, 3159, 3158, 3366, 3367, 3380, 3379
2737, 3147, 3148, 3161, 3160, 3368, 3369, 3382, 3381
2738, 3148, 3149, 3162, 3161, 3369, 3370, 3383, 3382
2739, 3149, 3150, 3163, 3162, 3370, 3371, 3384, 3383
2740, 3150, 3151, 3164, 3163, 3371, 3372, 3385, 3384
2741, 3151, 3152, 3165, 3164, 3372, 3373, 3386, 3385
2742, 3152, 3153, 3166, 3165, 3373, 3374, 3387, 3386
2743, 3153, 3154, 3167, 3166, 3374, 3375, 3388, 3387
2744, 3154, 3155, 3168, 3167, 3375, 3376, 3389, 3388
2745, 3155, 3156, 3169, 3168, 3376, 3377, 3390, 3389
2746, 3156, 3157, 3170, 3169, 3377, 3378, 3391, 3390
2747, 3157, 3158, 3171, 3170, 3378, 3379, 3392, 3391
2748, 3158, 3159, 3172, 3171, 3379, 3380, 3393, 3392
2749, 3160, 3161, 3174, 3173, 3381, 3382, 3395, 3394
2750, 3161, 3162, 3175, 3174, 3382, 3383, 3396, 3395
2751, 3162, 3163, 3176, 3175, 3383, 3384, 3397, 3396
2752, 3163, 3164, 3177, 3176, 3384, 3385, 3398, 3397
2753, 3164, 3165, 3178, 3177, 3385, 3386, 3399, 3398
2754, 3165, 3166, 3179, 3178, 3386, 3387, 3400, 3399
2755, 3166, 3167, 3180, 3179, 3387, 3388, 3401, 3400
2756, 3167, 3168, 3181, 3180, 3388, 3389, 3402, 3401
2757, 3168, 3169, 3182, 3181, 3389, 3390, 3403, 3402
2758, 3169, 3170, 3183, 3182, 3390, 3391, 3404, 3403
2759, 3170, 3171, 3184, 3183, 3391, 3392, 3405, 3404
2760, 3171, 3172, 3185, 3184, 3392, 3393, 3406, 3405
2761, 3173, 3174, 3187, 3186, 3394, 3395, 3408, 3407
2762, 3174, 3175, 3188, 3187, 3395, 3396, 3409, 3408
2763, 3175, 3176, 3189, 3188, 3396, 3397, 3410, 3409
2764, 3176, 3177, 3190, 3189, 3397, 3398, 3411, 3410
2765, 3177, 3178, 3191, 3190, 3398, 3399, 3412, 3411
2766, 3178, 3179, 3192, 3191, 3399, 3400, 3413, 3412
2767, 3179, 3180, 3193, 3192, 3400, 3401, 3414, 3413
2768, 3180, 3181, 3194, 3193, 3401, 3402, 3415, 3414
2769, 3181, 3182, 3195, 3194, 3402, 3403, 3416, 3415
2770, 3182, 3183, 3196, 3195, 3403, 3404, 3417, 3416
2771, 3183, 3184, 3197, 3196, 3404, 3405, 3418, 3417
2772, 3184, 3185, 3198, 3197, 3405, 3406, 3419, 3418
2773, 3186, 3187, 3200, 3199, 3407, 3408, 3421, 3420
2774, 3187, 3188, 3201, 3200, 3408, 3409, 3422, 3421
2775, 3188, 3189, 3202, 3201, 3409, 3410, 3423, 3422
2776, 3189, 3190, 3203, 3202, 3410, 3411, 3424, 3423
2777, 3190, 3191, 3204, 3203, 3411, 3412, 3425, 3424
2778, 3191, 3192, 3205, 3204, 3412, 3413, 3426, 3425
2779, 3192, 3193, 3206, 3205, 3413, 3414, 3427, 3426
2780, 3193, 3194, 3207, 3206, 3414, 3415, 3428, 3427
2781, 3194, 3195, 3208, 3207, 3415, 3416, 3429, 3428
2782, 3195, 3196, 3209, 3208, 3416, 3417, 3430, 3429
2783, 3196, 3197, 3210, 3209, 3417, 3418, 3431, 3430
2784, 3197, 3198, 3211, 3210, 3418, 3419, 3432, 3431
2785, 3199, 3200, 3213, 3212, 3420, 3421, 3434, 3433
2786, 3200, 3201, 3214, 3213, 3421, 3422, 3435, 3434
2787, 3201, 3202, 3215, 3214, 3422, 3423, 3436, 3435
2788, 3202, 3203, 3216, 3215, 3423, 3424, 3437, 3436
2789, 3203, 3204, 3217, 3216, 3424, 3425, 3438, 3437
2790, 3204, 3205, 3218, 3217, 3425, 3426, 3439, 3438
2791, 3205, 3206, 3219, 3218, 3426, 3427, 3440, 3439
2792, 3206, 3207, 3220, 3219, 3427, 3428, 3441, 3440
2793, 3207, 3208, 3221, 3220, 3428, 3429, 3442, 3441
2794, 3208, 3209, 3222, 3221, 3429, 3430, 3443, 3442
2795, 3209, 3210, 3223, 3222, 3430, 3431, 3444, 3443
2796, 3210, 3211, 3224, 3223, 3431, 3432, 3445, 3444
2797, 3212, 3213, 3226, 3225, 3433, 3434, 3447, 3446
2798, 3213, 3214, 3227, 3226, 3434, 3435, 3448, 3447
2799, 3214, 3215, 3228, 3227, 3435, 3436, 3449, 3448
2800, 3215, 3216, 3229, 3228, 3436, 3437, 3450, 3449
2801, 3216, 3217, 3230, 3229, 3437, 3438, 3451, 3450
2802, 3217, 3218, 3231, 3230, 3438, 3439, 3452, 3451
2803, 3218, 3219, 3232, 3231, 3439, 3440, 3453, 3452
2804, 3219, 3220, 3233, 3232, 3440, 3441, 3454, 3453
2805, 3220, 3221, 3234, 3233, 3441, 3442, 3455, 3454
2806, 3221, 3222, 3235, 3234, 3442, 3443, 3456, 3455
2807, 3222, 3223, 3236, 3235, 3443, 3444, 3457, 3456
2808, 3223, 3224, 3237, 3236, 3444, 3445, 3458, 3457
2809, 3225, 3226, 3239, 3238, 3446, 3447, 3460, 3459
2810, 3226, 3227, 3240, 3239, 3447, 3448, 3461, 3460
2811, 3227, 3228, 3241, 3240, 3448, 3449, 3462, 3461
2812, 3228, 3229, 3242, 3241, 3449, 3450, 3463, 3462
2813, 3229, 3230, 3243, 3242, 3450, 3451, 3464, 3463
2814, 3230, 3231, 3244, 3243, 3451, 3452, 3465, 3464
2815, 3231, 3232, 3245, 3244, 3452, 3453, 3466, 3465
2816, 3232, 3233, 3246, 3245, 3453, 3454, 3467, 3466
2817, 3233, 3234, 3247, 3246, 3454, 3455, 3468, 3467
2818, 3234, 3235, 3248, 3247, 3455, 3456, 3469, 3468
2819, 3235, 3236, 3249, 3248, 3456, 3457, 3470, 3469
2820, 3236, 3237, 3250, 3249, 3457, 3458, 3471, 3470
2821, 3238, 3239, 3252, 3251, 3459, 3460, 3473, 3472
2822, 3239, 3240, 3253, 3252, 3460, 3461, 3474, 3473
2823, 3240, 3241, 3254, 3253, 3461, 3462, 3475, 3474
2824, 3241, 3242, 3255, 3254, 3462, 3463, 3476, 3475
2825, 3242, 3243, 3256, 3255, 3463, 3464, 3477, 3476
2826, 3243, 3244, 3257, 3256, 3464, 3465, 3478, 3477
2827, 3244, 3245, 3258, 3257, 3465, 3466, 3479, 3478
2828, 3245, 3246, 3259, 3258, 3466, 3467, 3480, 3479
2829, 3246, 3247, 3260, 3259, 3467, 3468, 3481, 3480
2830, 3247, 3248, 3261, 3260, 3468, 3469, 3482, 3481
2831, 3248, 3249, 3262, 3261, 3469, 3470, 3483, 3482
2832, 3249, 3250, 3263, 3262, 3470, 3471, 3484, 3483
2833, 3251, 3252, 3265, 3264, 3472, 3473, 3486, 3485
2834, 3252, 3253, 3266, 3265, 3473, 3474, 3487, 3486
2835, 3253, 3254, 3267, 3266, 3474, 3475, 3488, 3487
2836, 3254, 3255, 3268, 3267, 3475, 3476, 3489, 3488
2837, 3255, 3256, 3269, 3268, 3476, 3477, 3490, 3489
2838, 3256, 3257, 3270, 3269, 3477, 3478, 3491, 3490
2839, 3257, 3258, 3271, 3270, 3478, 3479, 3492, 3491
2840, 3258, 3259, 3272, 3271, 3479, 3480, 3493, 3492
2841, 3259, 3260, 3273, 3272, 3480, 3481, 3494, 3493
2842, 3260, 3261, 3274, 3273, 3481, 3482, 3495, 3494
2843, 3261, 3262, 3275, 3274, 3482, 3483, 3496, 3495
2844, 3262, 3263, 3276, 3275, 3483, 3484, 3497, 3496
2845, 3264, 3265, 3278, 3277, 3485, 3486, 3499, 3498
2846, 3265, 3266, 3279, 3278, 3486, 3487, 3500, 3499
2847, 3266, 3267, 3280, 3279, 3487, 3488, 3501, 3500
2848, 3267, 3268, 3281, 3280, 3488, 3489, 3502, 3501
2849, 3268, 3269, 3282, 3281, 3489, 3490, 3503, 3502
2850, 3269, 3270, 3283, 3282, 3490, 3491, 3504, 3503
2851, 3270, 3271, 3284, 3283, 3491, 3492, 3505, 3504
2852, 3271, 3272, 3285, 3284, 3492, 3493, 3506, 3505
2853, 3272, 3273, 3286, 3285, 3493, 3494, 3507, 3506
2854, 3273, 3274, 3287, 3286, 3494, 3495, 3508, 3507
2855, 3274, 3275, 3288, 3287, 3495, 3496, 3509, 3508
2856, 3275, 3276, 3289, 3288, 3496, 3497, 3510, 3509
2857, 3277, 3278, 3291, 3290, 3498, 3499, 3512, 3511
2858, 3278, 3279, 3292, 3291, 3499, 3500, 3513, 3512
2859, 3279, 3280, 3293, 3292, 3500, 3501, 3514, 3513
2860, 3280, 3281, 3294, 3293, 3501, 3502, 3515, 3514
2861, 3281, 3282, 3295, 3294, 3502, 3503, 3516, 3515
2862, 3282, 3283, 3296, 3295, 3503, 3504, 3517, 3516
2863, 3283, 3284, 3297, 3296, 3504, 3505, 3518, 3517
2864, 3284, 3285, 3298, 3297, 3505, 3506, 3519, 3518
2865, 3285, 3286, 3299, 3298, 3506, 3507, 3520, 3519
2866, 3286, 3287, 3300, 3299, 3507, 3508, 3521, 3520
2867, 3287, 3288, 3301, 3300, 3508, 3509, 3522, 3521
2868, 3288, 3289, 3302, 3301, 3509, 3510, 3523, 3522
2869, 3290, 3291, 3304, 3303, 3511, 3512, 3525, 3524
2870, 3291, 3292, 3305, 3304, 3512, 3513, 3526, 3525
2871, 3292, 3293, 3306, 3305, 3513, 3514, 3527, 3526
2872, 3293, 3294, 3307, 3306, 3514, 3515, 3528, 3527
2873, 3294, 3295, 3308, 3307, 3515, 3516, 3529, 3528
2874, 3295, 3296, 3309, 3308, 3516, 3517, 3530, 3529
2875, 3296, 3297, 3310, 3309, 3517, 3518, 3531, 3530
2876, 3297, 3298, 3311, 3310, 3518, 3519, 3532, 3531
2877, 3298, 3299, 3312, 3311, 3519, 3520, 3533, 3532
2878, 3299, 3300, 3313, 3312, 3520, 3521, 3534, 3533
2879, 3300, 3301, 3314, 3313, 3521, 3522, 3535, 3534
2880, 3301, 3302, 3315, 3314, 3522, 3523, 3536, 3535
2881, 3316, 3317, 3330, 3329, 3537, 3538, 3551, 3550
2882, 3317, 3318, 3331, 3330, 3538, 3539, 3552, 3551
2883, 3318, 3319, 3332, 3331, 3539, 3540, 3553, 3552
2884, 3319, 3320, 3333, 3332, 3540, 3541, 3554, 3553
2885, 3320, 3321, 3334, 3333, 3541, 3542, 3555, 3554
2886, 3321, 3322, 3335, 3334, 3542, 3543, 3556, 3555
2887, 3322, 3323, 3336, 3335, 3543, 3544, 3557, 3556
2888, 3323, 3324, 3337, 3336, 3544, 3545, 3558, 3557
2889, 3324, 3325, 3338, 3337, 3545, 3546, 3559, 3558
2890, 3325, 3326, 3339, 3338, 3546, 3547, 3560, 3559
2891, 3326, 3327, 3340, 3339, 3547, 3548, 3561, 3560
2892, 3327, 3328, 3341, 3340, 3548, 3549, 3562, 3561
2893, 3329, 3330, 3343, 3342, 3550, 3551, 3564, 3563
2894, 3330, 3331, 3344, 3343, 3551, 3552, 3565, 3564
2895, 3331, 3332, 3345, 3344, 3552, 3553, 3566, 3565
2896, 3332, 3333, 3346, 3345, 3553, 3554, 3567, 3566
2897, 3333, 3334, 3347, 3346, 3554, 3555, 3568, 3567
2898, 3334, 3335, 3348, 3347, 3555, 3556, 3569, 3568
2899, 3335, 3336, 3349, 3348, 3556, 3557, 3570, 3569
2900, 3336, 3337, 3350, 3349, 3557, 3558, 3571, 3570
2901, 3337, 3338, 3351, 3350, 3558, 3559, 3572, 3571
2902, 3338, 3339, 3352, 3351, 3559, 3560, 3573, 3572
2903, 3339, 3340, 3353, 3352, 3560, 3561, 3574, 3573
2904, 3340, 3341, 3354, 3353, 3561, 3562, 3575, 3574
2905, 3342, 3343, 3356, 3355, 3563, 3564, 3577, 3576
2906, 3343, 3344, 3357, 3356, 3564, 3565, 3578, 3577
2907, 3344, 3345, 3358, 3357, 3565, 3566, 3579, 3578
2908, 3345, 3346, 3359, 3358, 3566, 3567, 3580, 3579
2909, 3346, 3347, 3360, 3359, 3567, 3568, 3581, 3580
2910, 3347, 3348, 3361, 3360, 3568, 3569, 3582, 3581
2911, 3348, 3349, 3362, 3361, 3569, 3570, 3583, 3582
2912, 3349, 3350, 3363, 3362, 3570, 3571, 3584, 3583
2913, 3350, 3351, 3364, 3363, 3571, 3572, 3585, 3584
2914, 3351, 3352, 3365, 3364, 3572, 3573, 3586, 3585
2915, 3352, 3353, 3366, 3365, 3573, 3574, 3587, 3586
2916, 3353, 3354, 3367, 3366, 3574, 3575, 3588, 3587
2917, 3355, 3356, 3369, 3368, 3576, 3577, 3590, 3589
2918, 3356, 3357, 3370, 3369, 3577, 3578, 3591, 3590
2919, 3357, 3358, 3371, 3370, 3578, 3579, 3592, 3591
2920, 3358, 3359, 3372, 3371, 3579, 3580, 3593, 3592
2921, 3359, 3360, 3373, 3372, 3580, 3581, 3594, 3593
2922, 3360, 3361, 3374, 3373, 3581, 3582, 3595, 3594
2923, 3361, 3362, 3375, 3374, 3582, 3583, 3596, 3595
2924, 3362, 3363, 3376, 3375, 3583, 3584, 3597, 3596
2925, 3363, 3364, 3377, 3376, 3584, 3585, 3598, 3597
2926, 3364, 3365, 3378, 3377, 3585, 3586, 3599, 3598
2927, 3365, 3366, 3379, 3378, 3586, 3587, 3600, 3599
2928, 3366, 3367, 3380, 3379, 3587, 3588, 3601, 3600
2929, 3368, 3369, 3382, 3381, 3589, 3590, 3603, 3602
2930, 3369, 3370, 3383, 3382, 3590, 3591, 3604, 3603
2931, 3370, 3371, 3384, 3383, 3591, 3592, 3605, 3604
2932, 3371, 3372, 3385, 3384, 3592, 3593, 3606, 3605
2933, 3372, 3373, 3386, 3385, 3593, 3594, 3607, 3606
2934, 3373, 3374, 3387, 3386, 3594, 3595, 3608, 3607
2935, 3374, 3375, 3388, 3387, 3595, 3596, 3609, 3608
2936, 3375, 3376, 3389, 3388, 3596, 3597, 3610, 3609
2937, 3376, 3377, 3390, 3389, 3597, 3598, 3611, 3610
2938, 3377, 3378, 3391, 3390, 3598, 3599, 3612, 3611
2939, 3378, 3379, 3392, 3391, 3599, 3600, 3613, 3612
2940, 3379, 3380, 3393, 3392, 3600, 3601, 3614, 3613
2941, 3381, 3382, 3395, 3394, 3602, 3603, 3616, 3615
2942, 3382, 3383, 3396, 3395, 3603, 3604, 3617, 3616
2943, 3383, 3384, 3397, 3396, 3604, 3605, 3618, 3617
2944, 3384, 3385, 3398, 3397, 3605, 3606, 3619, 3618
2945, 3385, 3386, 3399, 3398, 3606, 3607, 3620, 3619
2946, 3386, 3387, 3400, 3399, 3607, 3608, 3621, 3620
2947, 3387, 3388, 3401, 3400, 3608, 3609, 3622, 3621
2948, 3388, 3389, 3402, 3401, 3609, 3610, 3623, 3622
2949, 3389, 3390, 3403, 3402, 3610, 3611, 3624, 3623
2950, 3390, 3391, 3404, 3403, 3611, 3612, 3625, 3624
2951, 3391, 3392, 3405, 3404, 3612, 3613, 3626, 3625
2952, 3392, 3393, 3406, 3405, 3613, 3614, 3627, 3626
2953, 3394, 3395, 3408, 3407, 3615, 3616, 3629, 3628
2954, 3395, 3396, 3409, 3408, 3616, 3617, 3630, 3629
2955, 3396, 3397, 3410, 3409, 3617, 3618, 3631, 3630
2956, 3397, 3398, 3411, 3410, 3618, 3619, 3632, 3631
2957, 3398, 3399, 3412, 3411, 3619, 3620, 3633, 3632
2958, 3399, 3400, 3413, 3412, 3620, 3621, 3634, 3633
2959, 3400, 3401, 3414, 3413, 3621, 3622, 3635, 3634
2960, 3401, 3402, 3415, 3414, 3622, 3623, 3636, 3635
2961, 3402, 3403, 3416, 3415, 3623, 3624, 3637, 3636
2962, 3403, 3404, 3417, 3416, 3624, 3625, 3638, 3637
2963, 3404, 3405, 3418, 3417, 3625, 3626, 3639, 3638
2964, 3405, 3406, 3419, 3418, 3626, 3627, 3640, 3639
2965, 3407, 3408, 3421, 3420, 3628, 3629, 3642, 3641
2966, 3408, 3409, 3422, 3421, 3629, 3630, 3643, 3642
2967, 3409, 3410, 3423, 3422, 3630, 3631, 3644, 3643
2968, 3410, 3411, 3424, 3423, 3631, 3632, 3645, 3644
2969, 3411, 3412, 3425, 3424, 3632, 3633, 3646, 3645
2970, 3412, 3413, 3426, 3425, 3633, 3634, 3647, 3646
2971, 3413, 3414, 3427, 3426, 3634, 3635, 3648, 3647
2972, 3414, 3415, 3428, 3427, 3635, 3636, 3649, 3648
2973, 3415, 3416, 3429, 3428, 3636, 3637, 3650, 3649
2974, 3416, 3417, 3430, 3429, 3637, 3638, 3651, 3650
2975, 3417, 3418, 3431, 3430, 3638, 3639, 3652, 3651
2976, 3418, 3419, 3432, 3431, 3639, 3640, 3653, 3652
2977, 3420, 3421, 3434, 3433, 3641, 3642, 3655, 3654
2978, 3421, 3422, 3435, 3434, 3642, 3643, 3656, 3655
2979, 3422, 3423, 3436, 3435, 3643, 3644, 3657, 3656
2980, 3423, 3424, 3437, 3436, 3644, 3645, 3658, 3657
2981, 3424, 3425, 3438, 3437, 3645, 3646, 3659, 3658
2982, 3425, 3426, 3439, 3438, 3646, 3647, 3660, 3659
2983, 3426, 3427, 3440, 3439, 3647, 3648, 3661, 3660
2984, 3427, 3428, 3441, 3440, 3648, 3649, 3662, 3661
2985, 3428, 3429, 3442, 3441, 3649, 3650, 3663, 3662
2986, 3429, 3430, 3443, 3442, 3650, 3651, 3664, 3663
2987, 3430, 3431, 3444, 3443, 3651, 3652, 3665, 3664
2988, 3431, 3432, 3445, 3444, 3652, 3653, 3666, 3665
2989, 3433, 3434, 3447, 3446, 3654, 3655, 3668, 3667
2990, 3434, 3435, 3448, 3447, 3655, 3656, 3669, 3668
2991, 3435, 3436, 3449, 3448, 3656, 3657, 3670, 3669
2992, 3436, 3437, 3450, 3449, 3657, 3658, 3671, 3670
2993, 3437, 3438, 3451, 3450, 3658, 3659, 3672, 3671
2994, 3438, 3439, 3452, 3451, 3659, 3660, 3673, 3672
2995, 3439, 3440, 3453, 3452, 3660, 3661, 3674, 3673
2996, 3440, 3441, 3454, 3453, 3661, 3662, 3675, 3674
2997, 3441, 3442, 3455, 3454, 3662, 3663, 3676, 3675
2998, 3442, 3443, 3456, 3455, 3663, 3664, 3677, 3676
2999, 3443, 3444, 3457, 3456, 3664, 3665, 3678, 3677
3000, 3444, 3445, 3458, 3457, 3665, 3666, 3679, 3678
3001, 3446, 3447, 3460, 3459, 3667, 3668, 3681, 3680
3002, 3447, 3448, 3461, 3460, 3668, 3669, 3682, 3681
3003, 3448, 3449, 3462, 3461, 3669, 3670, 3683, 3682
3004, 3449, 3450, 3463, 3462, 3670, 3671, 3684, 3683
3005, 3450, 3451, 3464, 3463, 3671, 3672, 3685, 3684
3006, 3451, 3452, 3465, 3464, 3672, 3673, 3686, 3685
3007, 3452, 3453, 3466, 3465, 3673, 3674, 3687, 3686
3008, 3453, 3454, 3467, 3466, 3674, 3675, 3688, 3687
3009, 3454, 3455, 3468, 3467, 3675, 3676, 3689, 3688
3010, 3455, 3456, 3469, 3468, 3676, 3677, 3690, 3689
3011, 3456, 3457, 3470, 3469, 3677, 3678, 3691, 3690
3012, 3457, 3458, 3471, 3470, 3678, 3679, 3692, 3691
3013, 3459, 3460, 3473, 3472, 3680, 3681, 3694, 3693
3014, 3460, 3461, 3474, 3473, 3681, 3682, 3695, 3694
3015, 3461, 3462, 3475, 3474, 3682, 3683, 3696, 3695
3016, 3462, 3463, 3476, 3475, 3683, 3684, 3697, 3696
3017, 3463, 3464, 3477, 3476, 3684, 3685, 3698, 3697
3018, 3464, 3465, 3478, 3477, 3685, 3686, 3699, 3698
3019, 3465, 3466, 3479, 3478, 3686, 3687, 3700, 3699
3020, 3466, 3467, 3480, 3479, 3687, 3688, 3701, 3700
3021, 3467, 3468, 3481, 3480, 3688, 3689, 3702, 3701
3022, 3468, 3469, 3482, 3481, 3689, 3690, 3703, 3702
3023, 3469, 3470, 3483, 3482, 3690, 3691, 3704, 3703
3024, 3470, 3471, 3484, 3483, 3691, 3692, 3705, 3704
3025, 3472, 3473, 3486, 3485, 3693, 3694, 3707, 3706
3026, 3473, 3474, 3487, 3486, 3694, 3695, 3708, 3707
3027, 3474, 3475, 3488, 3487, 3695, 3696, 3709, 3708
3028, 3475, 3476, 3489, 3488, 3696, 3697, 3710, 3709
3029, 3476, 3477, 3490, 3489, 3697, 3698, 3711, 3710
3030, 3477, 3478, 3491, 3490, 3698, 3699, 3712, 3711
3031, 3478, 3479, 3492, 3491, 3699, 3700, 3713, 3712
3032, 3479, 3480, 3493, 3492, 3700, 3701, 3714, 3713
3033, 3480, 3481, 3494, 3493, 3701, 3702, 3715, 3714
3034, 3481, 3482, 3495, 3494, 3702, 3703, 3716, 3715
3035, 3482, 3483, 3496, 3495, 3703, 3704, 3717, 3716
3036, 3483, 3484, 3497, 3496, 3704, 3705, 3718, 3717
3037, 3485, 3486, 3499, 3498, 3706, 3707, 3720, 3719
3038, 3486, 3487, 3500, 3499, 3707, 3708, 3721, 3720
3039, 3487, 3488, 3501, 3500, 3708, 3709, 3722, 3721
3040, 3488, 3489, 3502, 3501, 3709, 3710, 3723, 3722
3041, 3489, 3490, 3503, 3502, 3710, 3711, 3724, 3723
3042, 3490, 3491, 3504, 3503, 3711, 3712, 3725, 3724
3043, 3491, 3492, 3505, 3504, 3712, 3713, 3726, 3725
3044, 3492, 3493, 3506, 3505, 3713, 3714, 3727, 3726
3045, 3493, 3494, 3507, 3506, 3714, 3715, 3728, 3727
3046, 3494, 3495, 3508, 3507, 3715, 3716, 3729, 3728
3047, 3495, 3496, 3509, 3508, 3716, 3717, 3730, 3729
3048, 3496, 3497, 3510, 3509, 3717, 3718, 3731, 3730
3049, 3498, 3499, 3512, 3511, 3719, 3720, 3733, 3732
3050, 3499, 3500, 3513, 3512, 3720, 3721, 3734, 3733
3051, 3500, 3501, 3514, 3513, 3721, 3722, 3735, 3734
3052, 3501, 3502, 3515, 3514, 3722, 3723, 3736, 3735
3053, 3502, 3503, 3516, 3515, 3723, 3724, 3737, 3736
3054, 3503, 3504, 3517, 3516, 3724, 3725, 3738, 3737
3055, 3504, 3505, 3518, 3517, 3725, 3726, 3739, 3738
3056, 3505, 3506, 3519, 3518, 3726, 3727, 3740, 3739
3057, 3506, 3507, 3520, 3519, 3727, 3728, 3741, 3740
3058, 3507, 3508, 3521, 3520, 3728, 3729, 3742, 3741
3059, 3508, 3509, 3522, 3521, 3729, 3730, 3743, 3742
3060, 3509, 3510, 3523, 3522, 3730, 3731, 3744, 3743
3061, 3511, 3512, 3525, 3524, 3732, 3733, 3746, 3745
3062, 3512, 3513, 3526, 3525, 3733, 3734, 3747, 3746
3063, 3513, 3514, 3527, 3526, 3734, 3735, 3748, 3747
3064, 3514, 3515, 3528, 3527, 3735, 3736, 3749, 3748
3065, 3515, 3516, 3529, 3528, 3736, 3737, 3750, 3749
3066, 3516, 3517, 3530, 3529, 3737, 3738, 3751, 3750
3067, 3517, 3518, 3531, 3530, 3738, 3739, 3752, 3751
3068, 3518, 3519, 3532, 3531, 3739, 3740, 3753, 3752
3069, 3519, 3520, 3533, 3532, 3740, 3741, 3754, 3753
3070, 3520, 3521, 3534, 3533, 3741, 3742, 3755, 3754
3071, 3521, 3522, 3535, 3534, 3742, 3743, 3756, 3755
3072, 3522, 3523, 3536, 3535, 3743, 3744, 3757, 3756
3073, 3537, 3538, 3551, 3550, 3758, 3759, 3772, 3771
3074, 3538, 3539, 3552, 3551, 3759, 3760, 3773, 3772
3075, 3539, 3540, 3553, 3552, 3760, 3761, 3774, 3773
3076, 3540, 3541, 3554, 3553, 3761, 3762, 3775, 3774
3077, 3541, 3542, 3555, 3554, 3762, 3763, 3776, 3775
3078, 3542, 3543, 3556, 3555, 3763, 3764, 3777, 3776
3079, 3543, 3544, 3557, 3556, 3764, 3765, 3778, 3777
3080, 3544, 3545, 3558, 3557, 3765, 3766, 3779, 3778
3081, 3545, 3546, 3559, 3558, 3766, 3767, 3780, 3779
3082, 3546, 3547, 3560, 3559, 3767, 3768, 3781, 3780
3083, 3547, 3548, 3561, 3560, 3768, 3769, 3782, 3781
3084, 3548, 3549, 3562, 3561, 3769, 3770, 3783, 3782
3085, 3550, 3551, 3564, 3563, 3771, 3772, 3785, 3784
3086, 3551, 3552, 3565, 3564, 3772, 3773, 3786, 3785
3087, 3552, 3553, 3566, 3565, 3773, 3774, 3787, 3786
3088, 3553, 3554, 3567, 3566, 3774, 3775, 3788, 3787
3089, 3554, 3555, 3568, 3567, 3775, 3776, 3789, 3788
3090, 3555, 3556, 3569, 3568, 3776, 3777, 3790, 3789
3091, 3556, 3557, 3570, 3569, 3777, 3778, 3791, 3790
3092, 3557, 3558, 3571, 3570, 3778, 3779, 3792, 3791
3093, 3558, 3559, 3572, 3571, 3779, 3780, 3793, 3792
3094, 3559, 3560, 3573, 3572, 3780, 3781, 3794, 3793
3095, 3560, 3561, 3574, 3573, 3781, 3782, 3795, 3794
3096, 3561, 3562, 3575, 3574, 3782, 3783, 3796, 3795
3097, 3563, 3564, 3577, 3576, 3784, 3785, 3798, 3797
3098, 3564, 3565, 3578, 3577, 3785, 3786, 3799, 3798
3099, 3565, 3566, 3579, 3578, 3786, 3787, 3800, 3799
3100, 3566, 3567, 3580, 3579, 3787, 3788, 3801, 3800
3101, 3567, 3568, 3581, 3580, 3788, 3789, 3802, 3801
3102, 3568, 3569, 3582, 3581, 3789, 3790, 3803, 3802
3103, 3569, 3570, 3583, 3582, 3790, 3791, 3804, 3803
3104, 3570, 3571, 3584, 3583, 3791, 3792, 3805, 3804
3105, 3571, 3572, 3585, 3584, 3792, 3793, 3806, 3805
3106, 3572, 3573, 3586, 3585, 3793, 3794, 3807, 3806
3107, 3573, 3574, 3587, 3586, 3794, 3795, 3808, 3807
3108, 3574, 3575, 3588, 3587, 3795, 3796, 3809, 3808
3109, 3576, 3577, 3590, 3589, 3797, 3798, 3811, 3810
3110, 3577, 3578, 3591, 3590, 3798, 3799, 3812, 3811
3111, 3578, 3579, 3592, 3591, 3799, 3800, 3813, 3812
3112, 3579, 3580, 3593, 3592, 3800, 3801, 3814, 3813
3113, 3580, 3581, 3594, 3593, 3801, 3802, 3815, 3814
3114, 3581, 3582, 3595, 3594, 3802, 3803, 3816, 3815
3115, 3582, 3583, 3596, 3595, 3803, 3804, 3817, 3816
3116, 3583, 3584, 3597, 3596, 3804, 3805, 3818, 3817
3117, 3584, 3585, 3598, 3597, 3805, 3806, 3819, 3818
3118, 3585, 3586, 3599, 3598, 3806, 3807, 3820, 3819
3119, 3586, 3587, 3600, 3599, 3807, 3808, 3821, 3820
3120, 3587, 3588, 3601, 3600, 3808, 3809, 3822, 3821
3121, 3589, 3590, 3603, 3602, 3810, 3811, 3824, 3823
3122, 3590, 3591, 3604, 3603, 3811, 3812, 3825, 3824
3123, 3591, 3592, 3605, 3604, 3812, 3813, 3826, 3825
3124, 3592, 3593, 3606, 3605, 3813, 3814, 3827, 3826
3125, 3593, 3594, 3607, 3606, 3814, 3815, 3828, 3827
3126, 3594, 3595, 3608, 3607, 3815, 3816, 3829, 3828
3127, 3595, 3596, 3609, 3608, 3816, 3817, 3830, 3829
3128, 3596, 3597, 3610, 3609, 3817, 3818, 3831, 3830
3129, 3597, 3598, 3611, 3610, 3818, 3819, 3832, 3831
3130, 3598, 3599, 3612, 3611, 3819, 3820, 3833, 3832
3131, 3599, 3600, 3613, 3612, 3820, 3821, 3834, 3833
3132, 3600, 3601, 3614, 3613, 3821, 3822, 3835, 3834
3133, 3602, 3603, 3616, 3615, 3823, 3824, 3837, 3836
3134, 3603, 3604, 3617, 3616, 3824, 3825, 3838, 3837
3135, 3604, 3605, 3618, 3617, 3825, 3826, 3839, 3838
3136, 3605, 3606, 3619, 3618, 3826, 3827, 3840, 3839
3137, 3606, 3607, 3620, 3619, 3827, 3828, 3841, 3840
3138, 3607, 3608, 3621, 3620, 3828, 3829, 3842, 3841
3139, 3608, 3609, 3622, 3621, 3829, 3830, 3843, 3842
3140, 3609, 3610, 3623, 3622, 3830, 3831, 3844, 3843
3141, 3610, 3611, 3624, 3623, 3831, 3832, 3845, 3844
3142, 3611, 3612, 3625, 3624, 3832, 3833, 3846, 3845
3143, 3612, 3613, 3626, 3625, 3833, 3834, 3847, 3846
3144, 3613, 3614, 3627, 3626, 3834, 3835, 3848, 3847
3145, 3615, 3616, 3629, 3628, 3836, 3837, 3850, 3849
3146, 3616, 3617, 3630, 3629, 3837, 3838, 3851, 3850
3147, 3617, 3618, 3631, 3630, 3838, 3839, 3852, 3851
3148, 3618, 3619, 3632, 3631, 3839, 3840, 3853, 3852
3149, 3619, 3620, 3633, 3632, 3840, 3841, 3854, 3853
3150, 3620, 3621, 3634, 3633, 3841, 3842, 3855, 3854
3151, 3621, 3622, 3635, 3634, 3842, 3843, 3856, 3855
3152, 3622, 3623, 3636, 3635, 3843, 3844, 3857, 3856
3153, 3623, 3624, 3637, 3636, 3844, 3845, 3858, 3857
3154, 3624, 3625, 3638, 3637, 3845, 3846, 3859, 3858
3155, 3625, 3626, 3639, 3638, 3846, 3847, 3860, 3859
3156, 3626, 3627, 3640, 3639, 3847, 3848, 3861, 3860
3157, 3628, 3629, 3642, 3641, 3849, 3850, 3863, 3862
3158, 3629, 3630, 3643, 3642, 3850, 3851, 3864, 3863
3159, 3630, 3631, 3644, 3643, 3851, 3852, 3865, 3864
3160, 3631, 3632, 3645, 3644, 3852, 3853, 3866, 3865
3161, 3632, 3633, 3646, 3645, 3853, 3854, 3867, 3866
3162, 3633, 3634, 3647, 3646, 3854, 3855, 3868, 3867
3163, 3634, 3635, 3648, 3647, 3855, 3856, 3869, 3868
3164, 3635, 3636, 3649, 3648, 3856, 3857, 3870, 3869
3165, 3636, 3637, 3650, 3649, 3857, 3858, 3871, 3870
3166, 3637, 3638, 3651, 3650, 3858, 3859, 3872, 3871
3167, 3638, 3639, 3652, 3651, 3859, 3860, 3873, 3872
3168, 3639, 3640, 3653, 3652, 3860, 3861, 3874, 3873
3169, 3641, 3642, 3655, 3654, 3862, 3863, 3876, 3875
3170, 3642, 3643, 3656, 3655, 3863, 3864, 3877, 3876
3171, 3643, 3644, 3657, 3656, 3864, 3865, 3878, 3877
3172, 3644, 3645, 3658, 3657, 3865, 3866, 3879, 3878
3173, 3645, 3646, 3659, 3658, 3866, 3867, 3880, 3879
3174, 3646, 3647, 3660, 3659, 3867, 3868, 3881, 3880
3175, 3647, 3648, 3661, 3660, 3868, 3869, 3882, 3881
3176, 3648, 3649, 3662, 3661, 3869, 3870, 3883, 3882
3177, 3649, 3650, 3663, 3662, 3870, 3871, 3884, 3883
3178, 3650, 3651, 3664, 3663, 3871, 3872, 3885, 3884
3179, 3651, 3652, 3665, 3664, 3872, 3873, 3886, 3885
3180, 3652, 3653, 3666, 3665, 3873, 3874, 3887, 3886
3181, 3654, 3655, 3668, 3667, 3875, 3876, 3889, 3888
3182, 3655, 3656, 3669, 3668, 3876, 3877, 3890, 3889
3183, 3656, 3657, 3670, 3669, 3877, 3878, 3891, 3890
3184, 3657, 3658, 3671, 3670, 3878, 3879, 3892, 3891
3185, 3658, 3659, 3672, 3671, 3879, 3880, 3893, 3892
3186, 3659, 3660, 3673, 3672, 3880, 3881, 3894, 3893
3187, 3660, 3661, 3674, 3673, 3881, 3882, 3895, 3894
3188, 3661, 3662, 3675, 3674, 3882, 3883, 3896, 3895
3189, 3662, 3663, 3676, 3675, 3883, 3884, 3897, 3896
3190, 3663, 3664, 3677, 3676, 3884, 3885, 3898, 3897
3191, 3664, 3665, 3678, 3677, 3885, 3886, 3899, 3898
3192, 3665, 3666, 3679, 3678, 3886, 3887, 3900, 3899
3193, 3667, 3668, 3681, 3680, 3888, 3889, 3902, 3901
3194, 3668, 3669, 3682, 3681, 3889, 3890, 3903, 3902
3195, 3669, 3670, 3683, 3682, 3890, 3891, 3904, 3903
3196, 3670, 3671, 3684, 3683, 3891, 3892, 3905, 3904
3197, 3671, 3672, 3685, 3684, 3892, 3893, 3906, 3905
3198, 3672, 3673, 3686, 3685, 3893, 3894, 3907, 3906
3199, 3673, 3674, 3687, 3686, 3894, 3895, 3908, 3907
3200, 3674, 3675, 3688, 3687, 3895, 3896, 3909, 3908
3201, 3675, 3676, 3689, 3688, 3896, 3897, 3910, 3909
3202, 3676, 3677, 3690, 3689, 3897, 3898, 3911, 3910
3203, 3677, 3678, 3691, 3690, 3898, 3899, 3912, 3911
3204, 3678, 3679, 3692, 3691, 3899, 3900, 3913, 3912
3205, 3680, 3681, 3694, 3693, 3901, 3902, 3915, 3914
3206, 3681, 3682, 3695, 3694, 3902, 3903, 3916, 3915
3207, 3682, 3683, 3696, 3695, 3903, 3904, 3917, 3916
3208, 3683, 3684, 3697, 3696, 3904, 3905, 3918, 3917
3209, 3684, 3685, 3698, 3697, 3905, 3906, 3919, 3918
3210, 3685, 3686, 3699, 3698, 3906, 3907, 3920, 3919
3211, 3686, 3687, 3700, 3699, 3907, 3908, 3921, 3920
3212, 3687, 3688, 3701, 3700, 3908, 3909, 3922, 3921
3213, 3688, 3689, 3702, 3701, 3909, 3910, 3923, 3922
3214, 3689, 3690, 3703, 3702, 3910, 3911, 3924, 3923
3215, 3690, 3691, 3704, 3703, 3911, 3912, 3925, 3924
3216, 3691, 3692, 3705, 3704, 3912, 3913, 3926, 3925
3217, 3693, 3694, 3707, 3706, 3914, 3915, 3928, 3927
3218, 3694, 3695, 3708, 3707, 3915, 3916, 3929, 3928
3219, 3695, 3696, 3709, 3708, 3916, 3917, 3930, 3929
3220, 3696, 3697, 3710, 3709, 3917, 3918, 3931, 3930
3221, 3697, 3698, 3711, 3710, 3918, 3919, 3932, 3931
3222, 3698, 3699, 3712, 3711, 3919, 3920, 3933, 3932
3223, 3699, 3700, 3713, 3712, 3920, 3921, 3934, 3933
3224, 3700, 3701, 3714, 3713, 3921, 3922, 3935, 3934
3225, 3701, 3702, 3715, 3714, 3922, 3923, 3936, 3935
3226, 3702, 3703, 3716, 3715, 3923, 3924, 3937, 3936
3227, 3703, 3704, 3717, 3716, 3924, 3925, 3938, 3937
3228, 3704, 3705, 3718, 3717, 3925, 3926, 3939, 3938
3229, 3706, 3707, 3720, 3719, 3927, 3928, 3941, 3940
3230, 3707, 3708, 3721, 3720, 3928, 3929, 3942, 3941
3231, 3708, 3709, 3722, 3721, 3929, 3930, 3943, 3942
3232, 3709, 3710, 3723, 3722, 3930, 3931, 3944, 3943
3233, 3710, 3711, 3724, 3723, 3931, 3932, 3945, 3944
3234, 3711, 3712, 3725, 3724, 3932, 3933, 3946, 3945
3235, 3712, 3713, 3726, 3725, 3933, 3934, 3947, 3946
3236, 3713, 3714, 3727, 3726, 3934, 3935, 3948, 3947
3237, 3714, 3715, 3728, 3727, 3935, 3936, 3949, 3948
3238, 3715, 3716, 3729, 3728, 3936, 3937, 3950, 3949
3239, 3716, 3717, 3730, 3729, 3937, 3938, 3951, 3950
3240, 3717, 3718, 3731, 3730, 3938, 3939, 3952, 3951
3241, 3719, 3720, 3733, 3732, 3940, 3941, 3954, 3953
3242, 3720, 3721, 3734, 3733, 3941, 3942, 3955, 3954
3243, 3721, 3722, 3735, 3734, 3942, 3943, 3956, 3955
3244, 3722, 3723, 3736, 3735, 3943, 3944, 3957, 3956
3245, 3723, 3724, 3737, 3736, 3944, 3945, 3958, 3957
3246, 3724, 3725, 3738, 3737, 3945, 3946, 3959, 3958
3247, 3725, 3726, 3739, 3738, 3946, 3947, 3960, 3959
3248, 3726, 3727, 3740, 3739, 3947, 3948, 3961, 3960
3249, 3727, 3728, 3741, 3740, 3948, 3949, 3962, 3961
3250, 3728, 3729, 3742, 3741, 3949, 3950, 3963, 3962
3251, 3729, 3730, 3743, 3742, 3950, 3951, 3964, 3963
3252, 3730, 3731, 3744, 3743, 3951, 3952, 3965, 3964
3253, 3732, 3733, 3746, 3745, 3953, 3954, 3967, 3966
3254, 3733, 3734, 3747, 3746, 3954, 3955, 3968, 3967
3255, 3734, 3735, 3748, 3747, 3955, 3956, 3969, 3968
3256, 3735, 3736, 3749, 3748, 3956, 3957, 3970, 3969
3257, 3736, 3737, 3750, 3749, 3957, 3958, 3971, 3970
3258, 3737, 3738, 3751, 3750, 3958, 3959, 3972, 3971
3259, 3738, 3739, 3752, 3751, 3959, 3960, 3973, 3972
3260, 3739, 3740, 3753, 3752, 3960, 3961, 3974, 3973
3261, 3740, 3741, 3754, 3753, 3961, 3962, 3975, 3974
3262, 3741, 3742, 3755, 3754, 3962, 3963, 3976, 3975
3263, 3742, 3743, 3756, 3755, 3963, 3964, 3977, 3976
3264, 3743, 3744, 3757, 3756, 3964, 3965, 3978, 3977
3265, 3758, 3759, 3772, 3771, 3979, 3980, 3993, 3992
3266, 3759, 3760, 3773, 3772, 3980, 3981, 3994, 3993
3267, 3760, 3761, 3774, 3773, 3981, 3982, 3995, 3994
3268, 3761, 3762, 3775, 3774, 3982, 3983, 3996, 3995
3269, 3762, 3763, 3776, 3775, 3983, 3984, 3997, 3996
3270, 3763, 3764, 3777, 3776, 3984, 3985, 3998, 3997
3271, 3764, 3765, 3778, 3777, 3985, 3986, 3999, 3998
3272, 3765, 3766, 3779, 3778, 3986, 3987, 4000, 3999
3273, 3766, 3767, 3780, 3779, 3987, 3988, 4001, 4000
3274, 3767, 3768, 3781, 3780, 3988, 3989, 4002, 4001
3275, 3768, 3769, 3782, 3781, 3989, 3990, 4003, 4002
3276, 3769, 3770, 3783, 3782, 3990, 3991, 4004, 4003
3277, 3771, 3772, 3785, 3784, 3992, 3993, 4006, 4005
3278, 3772, 3773, 3786, 3785, 3993, 3994, 4007, 4006
3279, 3773, 3774, 3787, 3786, 3994, 3995, 4008, 4007
3280, 3774, 3775, 3788, 3787, 3995, 3996, 4009, 4008
3281, 3775, 3776, 3789, 3788, 3996, 3997, 4010, 4009
3282, 3776, 3777, 3790, 3789, 3997, 3998, 4011, 4010
3283, 3777, 3778, 3791, 3790, 3998, 3999, 4012, 4011
3284, 3778, 3779, 3792, 3791, 3999, 4000, 4013, 4012
3285, 3779, 3780, 3793, 3792, 4000, 4001, 4014, 4013
3286, 3780, 3781, 3794, 3793, 4001, 4002, 4015, 4014
3287, 3781, 3782, 3795, 3794, 4002, 4003, 4016, 4015
3288, 3782, 3783, 3796, 3795, 4003, 4004, 4017, 4016
3289, 3784, 3785, 3798, 3797, 4005, 4006, 4019, 4018
3290, 3785, 3786, 3799, 3798, 4006, 4007, 4020, 4019
3291, 3786, 3787, 3800, 3799, 4007, 4008, 4021, 4020
3292, 3787, 3788, 3801, 3800, 4008, 4009, 4022, 4021
3293, 3788, 3789, 3802, 3801, 4009, 4010, 4023, 4022
3294, 3789, 3790, 3803, 3802, 4010, 4011, 4024, 4023
3295, 3790, 3791, 3804, 3803, 4011, 4012, 4025, 4024
3296, 3791, 3792, 3805, 3804, 4012, 4013, 4026, 4025
3297, 3792, 3793, 3806, 3805, 4013, 4014, 4027, 4026
3298, 3793, 3794, 3807, 3806, 4014, 4015, 4028, 4027
3299, 3794, 3795, 3808, 3807, 4015, 4016, 4029, 4028
3300, 3795, 3796, 3809, 3808, 4016, 4017, 4030, 4029
3301, 3797, 3798, 3811, 3810, 4018, 4019, 4032, 4031
3302, 3798, 3799, 3812, 3811, 4019, 4020, 4033, 4032
3303, 3799, 3800, 3813, 3812, 4020, 4021, 4034, 4033
3304, 3800, 3801, 3814, 3813, 4021, 4022, 4035, 4034
3305, 3801, 3802, 3815, 3814, 4022, 4023, 4036, 4035
3306, 3802, 3803, 3816, 3815, 4023, 4024, 4037, 4036
3307, 3803, 3804, 3817, 3816, 4024, 4025, 4038, 4037
3308, 3804, 3805, 3818, 3817, 4025, 4026, 4039, 4038
3309, 3805, 3806, 3819, 3818, 4026, 4027, 4040, 4039
3310, 3806, 3807, 3820, 3819, 4027, 4028, 4041, 4040
3311, 3807, 3808, 3821, 3820, 4028, 4029, 4042, 4041
3312, 3808, 3809, 3822, 3821, 4029, 4030, 4043, 4042
3313, 3810, 3811, 3824, 3823, 4031, 4032, 4045, 4044
3314, 3811, 3812, 3825, 3824, 4032, 4033, 4046, 4045
3315, 3812, 3813, 3826, 3825, 4033, 4034, 4047, 4046
3316, 3813, 3814, 3827, 3826, 4034, 4035, 4048, 4047
3317, 3814, 3815, 3828, 3827, 4035, 4036, 4049, 4048
3318, 3815, 3816, 3829, 3828, 4036, 4037, 4050, 4049
3319, 3816, 3817, 3830, 3829, 4037, 4038, 4051, 4050
3320, 3817, 3818, 3831, 3830, 4038, 4039, 4052, 4051
3321, 3818, 3819, 3832, 3831, 4039, 4040, 4053, 4052
3322, 3819, 3820, 3833, 3832, 4040, 4041, 4054, 4053
3323, 3820, 3821, 3834, 3833, 4041, 4042, 4055, 4054
3324, 3821, 3822, 3835, 3834, 4042, 4043, 4056, 4055
3325, 3823, 3824, 3837, 3836, 4044, 4045, 4058, 4057
3326, 3824, 3825, 3838, 3837, 4045, 4046, 4059, 4058
3327, 3825, 3826, 3839, 3838, 4046, 4047, 4060, 4059
3328, 3826, 3827, 3840, 3839, 4047, 4048, 4061, 4060
3329, 3827, 3828, 3841, 3840, 4048, 4049, 4062, 4061
3330, 3828, 3829, 3842, 3841, 4049, 4050, 4063, 4062
3331, 3829, 3830, 3843, 3842, 4050, 4051, 4064, 4063
3332, 3830, 3831, 3844, 3843, 4051, 4052, 4065, 4064
3333, 3831, 3832, 3845, 3844, 4052, 4053, 4066, 4065
3334, 3832, 3833, 3846, 3845, 4053, 4054, 4067, 4066
3335, 3833, 3834, 3847, 3846, 4054, 4055, 4068, 4067
3336, 3834, 3835, 3848, 3847, 4055, 4056, 4069, 4068
3337, 3836, 3837, 3850, 3849, 4057, 4058, 4071, 4070
3338, 3837, 3838, 3851, 3850, 4058, 4059, 4072, 4071
3339, 3838, 3839, 3852, 3851, 4059, 4060, 4073, 4072
3340, 3839, 3840, 3853, 3852, 4060, 4061, 4074, 4073
3341, 3840, 3841, 3854, 3853, 4061, 4062, 4075, 4074
3342, 3841, 3842, 3855, 3854, 4062, 4063, 4076, 4075
3343, 3842, 3843, 3856, 3855, 4063, 4064, 4077, 4076
3344, 3843, 3844, 3857, 3856, 4064, 4065, 4078, 4077
3345, 3844, 3845, 3858, 3857, 4065, 4066, 4079, 4078
3346, 3845, 3846, 3859, 3858, 4066, 4067, 4080, 4079
3347, 3846, 3847, 3860, 3859, 4067, 4068, 4081, 4080
3348, 3847, 3848, 3861, 3860, 4068, 4069, 4082, 4081
3349, 3849, 3850, 3863, 3862, 4070, 4071, 4084, 4083
3350, 3850, 3851, 3864, 3863, 4071, 4072, 4085, 4084
3351, 3851, 3852, 3865, 3864, 4072, 4073, 4086, 4085
3352, 3852, 3853, 3866, 3865, 4073, 4074, 4087, 4086
3353, 3853, 3854, 3867, 3866, 4074, 4075, 4088, 4087
3354, 3854, 3855, 3868, 3867, 4075, 4076, 4089, 4088
3355, 3855, 3856, 3869, 3868, 4076, 4077, 4090, 4089
3356, 3856, 3857, 3870, 3869, 4077, 4078, 4091, 4090
3357, 3857, 3858, 3871, 3870, 4078, 4079, 4092, 4091
3358, 3858, 3859, 3872, 3871, 4079, 4080, 4093, 4092
3359, 3859, 3860, 3873, 3872, 4080, 4081, 4094, 4093
3360, 3860, 3861, 3874, 3873, 4081, 4082, 4095, 4094
3361, 3862, 3863, 3876, 3875, 4083, 4084, 4097, 4096
3362, 3863, 3864, 3877, 3876, 4084, 4085, 4098, 4097
3363, 3864, 3865, 3878, 3877, 4085, 4086, 4099, 4098
3364, 3865, 3866, 3879, 3878, 4086, 4087, 4100, 4099
3365, 3866, 3867, 3880, 3879, 4087, 4088, 4101, 4100
3366, 3867, 3868, 3881, 3880, 4088, 4089, 4102, 4101
3367, 3868, 3869, 3882, 3881, 4089, 4090, 4103, 4102
3368, 3869, 3870, 3883, 3882, 4090, 4091, 4104, 4103
3369, 3870, 3871, 3884, 3883, 4091, 4092, 4105, 4104
3370, 3871, 3872, 3885, 3884, 4092, 4093, 4106, 4105
3371, 3872, 3873, 3886, 3885, 4093, 4094, 4107, 4106
3372, 3873, 3874, 3887, 3886, 4094, 4095, 4108, 4107
3373, 3875, 3876, 3889, 3888, 4096, 4097, 4110, 4109
3374, 3876, 3877, 3890, 3889, 4097, 4098, 4111, 4110
3375, 3877, 3878, 3891, 3890, 4098, 4099, 4112, 4111
3376, 3878, 3879, 3892, 3891, 4099, 4100, 4113, 4112
3377, 3879, 3880, 3893, 3892, 4100, 4101, 4114, 4113
3378, 3880, 3881, 3894, 3893, 4101, 4102, 4115, 4114
3379, 3881, 3882, 3895, 3894, 4102, 4103, 4116, 4115
3380, 3882, 3883, 3896, 3895, 4103, 4104, 4117, 4116
3381, 3883, 3884, 3897, 3896, 4104, 4105, 4118, 4117
3382, 3884, 3885, 3898, 3897, 4105, 4106, 4119, 4118
3383, 3885, 3886, 3899, 3898, 4106, 4107, 4120, 4119
3384, 3886, 3887, 3900, 3899, 4107, 4108, 4121, 4120
3385, 3888, 3889, 3902, 3901, 4109, 4110, 4123, 4122
3386, 3889, 3890, 3903, 3902, 4110, 4111, 4124, 4123
3387, 3890, 3891, 3904, 3903, 4111, 4112, 4125, 4124
3388, 3891, 3892, 3905, 3904, 4112, 4113, 4126, 4125
3389, 3892, 3893, 3906, 3905, 4113, 4114, 4127, 4126
3390, 3893, 3894, 3907, 3906, 4114, 4115, 4128, 4127
3391, 3894, 3895, 3908, 3907, 4115, 4116, 4129, 4128
3392, 3895, 3896, 3909, 3908, 4116, 4117, 4130, 4129
3393, 3896, 3897, 3910, 3909, 4117, 4118, 4131, 4130
3394, 3897, 3898, 3911, 3910, 4118, 4119, 4132, 4131
3395, 3898, 3899, 3912, 3911, 4119, 4120, 4133, 4132
3396, 3899, 3900, 3913, 3912, 4120, 4121, 4134, 4133
3397, 3901, 3902, 3915, 3914, 4122, 4123, 4136, 4135
3398, 3902, 3903, 3916, 3915, 4123, 4124, 4137, 4136
3399, 3903, 3904, 3917, 3916, 4124, 4125, 4138, 4137
3400, 3904, 3905, 3918, 3917, 4125, 4126, 4139, 4138
3401, 3905, 3906, 3919, 3918, 4126, 4127, 4140, 4139
3402, 3906, 3907, 3920, 3919, 4127, 4128, 4141, 4140
3403, 3907, 3908, 3921, 3920, 4128, 4129, 4142, 4141
3404, 3908, 3909, 3922, 3921, 4129, 4130, 4143, 4142
3405, 3909, 3910, 3923, 3922, 4130, 4131, 4144, 4143
3406, 3910, 3911, 3924, 3923, 4131, 4132, 4145, 4144
3407, 3911, 3912, 3925, 3924, 4132, 4133, 4146, 4145
3408, 3912, 3913, 3926, 3925, 4133, 4134, 4147, 4146
3409, 3914, 3915, 3928, 3927, 4135, 4136, 4149, 4148
3410, 3915, 3916, 3929, 3928, 4136, 4137, 4150, 4149
3411, 3916, 3917, 3930, 3929, 4137, 4138, 4151, 4150
3412, 3917, 3918, 3931, 3930, 4138, 4139, 4152, 4151
3413, 3918, 3919, 3932, 3931, 4139, 4140, 4153, 4152
3414, 3919, 3920, 3933, 3932, 4140, 4141, 4154, 4153
3415, 3920, 3921, 3934, 3933, 4141, 4142, 4155, 4154
3416, 3921, 3922, 3935, 3934, 4142, 4143, 4156, 4155
3417, 3922, 3923, 3936, 3935, 4143, 4144, 4157, 4156
3418, 3923, 3924, 3937, 3936, 4144, 4145, 4158, 4157
3419, 3924, 3925, 3938, 3937, 4145, 4146, 4159, 4158
3420, 3925, 3926, 3939, 3938, 4146, 4147, 4160, 4159
3421, 3927, 3928, 3941, 3940, 4148, 4149, 4162, 4161
3422, 3928, 3929, 3942, 3941, 4149, 4150, 4163, 4162
3423, 3929, 3930, 3943, 3942, 4150, 4151, 4164, 4163
3424, 3930, 3931, 3944, 3943, 4151, 4152, 4165, 4164
3425, 3931, 3932, 3945, 3944, 4152, 4153, 4166, 4165
3426, 3932, 3933, 3946, 3945, 4153, 4154, 4167, 4166
3427, 3933, 3934, 3947, 3946, 4154, 4155, 4168, 4167
3428, 3934, 3935, 3948, 3947, 4155, 4156, 4169, 4168
3429, 3935, 3936, 3949, 3948, 4156, 4157, 4170, 4169
3430, 3936, 3937, 3950, 3949, 4157, 4158, 4171, 4170
3431, 3937, 3938, 3951, 3950, 4158, 4159, 4172, 4171
3432, 3938, 3939, 3952, 3951, 4159, 4160, 4173, 4172
3433, 3940, 3941, 3954, 3953, 4161, 4162, 4175, 4174
3434, 3941, 3942, 3955, 3954, 4162, 4163, 4176, 4175
3435, 3942, 3943, 3956, 3955, 4163, 4164, 4177, 4176
3436, 3943, 3944, 3957, 3956, 4164, 4165, 4178, 4177
3437, 3944, 3945, 3958, 3957, 4165, 4166, 4179, 4178
3438, 3945, 3946, 3959, 3958, 4166, 4167, 4180, 4179
3439, 3946, 3947, 3960, 3959, 4167, 4168, 4181, 4180
3440, 3947, 3948, 3961, 3960, 4168, 4169, 4182, 4181
3441, 3948, 3949, 3962, 3961, 4169, 4170, 4183, 4182
3442, 3949, 3950, 3963, 3962, 4170, 4171, 4184, 4183
3443, 3950, 3951, 3964, 3963, 4171, 4172, 4185, 4184
3444, 3951, 3952, 3965, 3964, 4172, 4173, 4186, 4185
3445, 3953, 3954, 3967, 3966, 4174, 4175, 4188, 4187
3446, 3954, 3955, 3968, 3967, 4175, 4176, 4189, 4188
3447, 3955, 3956, 3969, 3968, 4176, 4177, 4190, 4189
3448, 3956, 3957, 3970, 3969, 4177, 4178, 4191, 4190
3449, 3957, 3958, 3971, 3970, 4178, 4179, 4192, 4191
3450, 3958, 3959, 3972, 3971, 4179, 4180, 4193, 4192
3451, 3959, 3960, 3973, 3972, 4180, 4181, 4194, 4193
3452, 3960, 3961, 3974, 3973, 4181, 4182, 4195, 4194
3453, 3961, 3962, 3975, 3974, 4182, 4183, 4196, 4195
3454, 3962, 3963, 3976, 3975, 4183, 4184, 4197, 4196
3455, 3963, 3964, 3977, 3976, 4184, 4185, 4198, 4197
3456, 3964, 3965, 3978, 3977, 4185, 4186, 4199, 4198
3457, 3979, 3980, 3993, 3992, 4200, 4201, 4214, 4213
3458, 3980, 3981, 3994, 3993, 4201, 4202, 4215, 4214
3459, 3981, 3982, 3995, 3994, 4202, 4203, 4216, 4215
3460, 3982, 3983, 3996, 3995, 4203, 4204, 4217, 4216
3461, 3983, 3984, 3997, 3996, 4204, 4205, 4218, 4217
3462, 3984, 3985, 3998, 3997, 4205, 4206, 4219, 4218
3463, 3985, 3986, 3999, 3998, 4206, 4207, 4220, 4219
3464, 3986, 3987, 4000, 3999, 4207, 4208, 4221, 4220
3465, 3987, 3988, 4001, 4000, 4208, 4209, 4222, 4221
3466, 3988, 3989, 4002, 4001, 4209, 4210, 4223, 4222
3467, 3989, 3990, 4003, 4002, 4210, 4211, 4224, 4223
3468, 3990, 3991, 4004, 4003, 4211, 4212, 4225, 4224
3469, 3992, 3993, 4006, 4005, 4213, 4214, 4227, 4226
3470, 3993, 3994, 4007, 4006, 4214, 4215, 4228, 4227
3471, 3994, 3995, 4008, 4007, 4215, 4216, 4229, 4228
3472, 3995, 3996, 4009, 4008, 4216, 4217, 4230, 4229
3473, 3996, 3997, 4010, 4009, 4217, 4218, 4231, 4230
3474, 3997, 3998, 4011, 4010, 4218, 4219, 4232, 4231
3475, 3998, 3999, 4012, 4011, 4219, 4220, 4233, 4232
3476, 3999, 4000, 4013, 4012, 4220, 4221, 4234, 4233
3477, 4000, 4001, 4014, 4013, 4221, 4222, 4235, 4234
3478, 4001, 4002, 4015, 4014, 4222, 4223, 4236, 4235
3479, 4002, 4003, 4016, 4015, 4223, 4224, 4237, 4236
3480, 4003, 4004, 4017, 4016, 4224, 4225, 4238, 4237
3481, 4005, 4006, 4019, 4018, 4226, 4227, 4240, 4239
3482, 4006, 4007, 4020, 4019, 4227, 4228, 4241, 4240
3483, 4007, 4008, 4021, 4020, 4228, 4229, 4242, 4241
3484, 4008, 4009, 4022, 4021, 4229, 4230, 4243, 4242
3485, 4009, 4010, 4023, 4022, 4230, 4231, 4244, 4243
3486, 4010, 4011, 4024, 4023, 4231, 4232, 4245, 4244
3487, 4011, 4012, 4025, 4024, 4232, 4233, 4246, 4245
3488, 4012, 4013, 4026, 4025, 4233, 4234, 4247, 4246
3489, 4013, 4014, 4027, 4026, 4234, 4235, 4248, 4247
3490, 4014, 4015, 4028, 4027, 4235, 4236, 4249, 4248
3491, 4015, 4016, 4029, 4028, 4236, 4237, 4250, 4249
3492, 4016, 4017, 4030, 4029, 4237, 4238, 4251, 4250
3493, 4018, 4019, 4032, 4031, 4239, 4240, 4253, 4252
3494, 4019, 4020, 4033, 4032, 4240, 4241, 4254, 4253
3495, 4020, 4021, 4034, 4033, 4241, 4242, 4255, 4254
3496, 4021, 4022, 4035, 4034, 4242, 4243, 4256, 4255
3497, 4022, 4023, 4036, 4035, 4243, 4244, 4257, 4256
3498, 4023, 4024, 4037, 4036, 4244, 4245, 4258, 4257
3499, 4024, 4025, 4038, 4037, 4245, 4246, 4259, 4258
3500, 4025, 4026, 4039, 4038, 4246, 4247, 4260, 4259
3501, 4026, 4027, 4040, 4039, 4247, 4248, 4261, 4260
3502, 4027, 4028, 4041, 4040, 4248, 4249, 4262, 4261
3503, 4028, 4029, 4042, 4041, 4249, 4250, 4263, 4262
3504, 4029, 4030, 4043, 4042, 4250, 4251, 4264, 4263
3505, 4031, 4032, 4045, 4044, 4252, 4253, 4266, 4265
3506, 4032, 4033, 4046, 4045, 4253, 4254, 4267, 4266
3507, 4033, 4034, 4047, 4046, 4254, 4255, 4268, 4267
3508, 4034, 4035, 4048, 4047, 4255, 4256, 4269, 4268
3509, 4035, 4036, 4049, 4048, 4256, 4257, 4270, 4269
3510, 4036, 4037, 4050, 4049, 4257, 4258, 4271, 4270
3511, 4037, 4038, 4051, 4050, 4258, 4259, 4272, 4271
3512, 4038, 4039, 4052, 4051, 4259, 4260, 4273, 4272
3513, 4039, 4040, 4053, 4052, 4260, 4261, 4274, 4273
3514, 4040, 4041, 4054, 4053, 4261, 4262, 4275, 4274
3515, 4041, 4042, 4055, 4054, 4262, 4263, 4276, 4275
3516, 4042, 4043, 4056, 4055, 4263, 4264, 4277, 4276
3517, 4044, 4045, 4058, 4057, 4265, 4266, 4279, 4278
3518, 4045, 4046, 4059, 4058, 4266, 4267, 4280, 4279
3519, 4046, 4047, 4060, 4059, 4267, 4268, 4281, 4280
3520, 4047, 4048, 4061, 4060, 4268, 4269, 4282, 4281
3521, 4048, 4049, 4062, 4061, 4269, 4270, 4283, 4282
3522, 4049, 4050, 4063, 4062, 4270, 4271, 4284, 4283
3523, 4050, 4051, 4064, 4063, 4271, 4272, 4285, 4284
3524, 4051, 4052, 4065, 4064, 4272, 4273, 4286, 4285
3525, 4052, 4053, 4066, 4065, 4273, 4274, 4287, 4286
3526, 4053, 4054, 4067, 4066, 4274, 4275, 4288, 4287
3527, 4054, 4055, 4068, 4067, 4275, 4276, 4289, 4288
3528, 4055, 4056, 4069, 4068, 4276, 4277, 4290, 4289
3529, 4057, 4058, 4071, 4070, 4278, 4279, 4292, 4291
3530, 4058, 4059, 4072, 4071, 4279, 4280, 4293, 4292
3531, 4059, 4060, 4073, 4072, 4280, 4281, 4294, 4293
3532, 4060, 4061, 4074, 4073, 4281, 4282, 4295, 4294
3533, 4061, 4062, 4075, 4074, 4282, 4283, 4296, 4295
3534, 4062, 4063, 4076, 4075, 4283, 4284, 4297, 4296
3535, 4063, 4064, 4077, 4076, 4284, 4285, 4298, 4297
3536, 4064, 4065, 4078, 4077, 4285, 4286, 4299, 4298
3537, 4065, 4066, 4079, 4078, 4286, 4287, 4300, 4299
3538, 4066, 4067, 4080, 4079, 4287, 4288, 4301, 4300
3539, 4067, 4068, 4081, 4080, 4288, 4289, 4302, 4301
3540, 4068, 4069, 4082, 4081, 4289, 4290, 4303, 4302
3541, 4070, 4071, 4084, 4083, 4291, 4292, 4305, 4304
3542, 4071, 4072, 4085, 4084, 4292, 4293, 4306, 4305
3543, 4072, 4073, 4086, 4085, 4293, 4294, 4307, 4306
3544, 4073, 4074, 4087, 4086, 4294, 4295, 4308, 4307
3545, 4074, 4075, 4088, 4087, 4295, 4296, 4309, 4308
3546, 4075, 4076, 4089, 4088, 4296, 4297, 4310, 4309
3547, 4076, 4077, 4090, 4089, 4297, 4298, 4311, 4310
3548, 4077, 4078, 4091, 4090, 4298, 4299, 4312, 4311
3549, 4078, 4079, 4092, 4091, 4299, 4300, 4313, 4312
3550, 4079, 4080, 4093, 4092, 4300, 4301, 4314, 4313
3551, 4080, 4081, 4094, 4093, 4301, 4302, 4315, 4314
3552, 4081, 4082, 4095, 4094, 4302, 4303, 4316, 4315
3553, 4083, 4084, 4097, 4096, 4304, 4305, 4318, 4317
3554, 4084, 4085, 4098, 4097, 4305, 4306, 4319, 4318
3555, 4085, 4086, 4099, 4098, 4306, 4307, 4320, 4319
3556, 4086, 4087, 4100, 4099, 4307, 4308, 4321, 4320
3557, 4087, 4088, 4101, 4100, 4308, 4309, 4322, 4321
3558, 4088, 4089, 4102, 4101, 4309, 4310, 4323, 4322
3559, 4089, 4090, 4103, 4102, 4310, 4311, 4324, 4323
3560, 4090, 4091, 4104, 4103, 4311, 4312, 4325, 4324
3561, 4091, 4092, 4105, 4104, 4312, 4313, 4326, 4325
3562, 4092, 4093, 4106, 4105, 4313, 4314, 4327, 4326
3563, 4093, 4094, 4107, 4106, 4314, 4315, 4328, 4327
3564, 4094, 4095, 4108, 4107, 4315, 4316, 4329, 4328
3565, 4096, 4097, 4110, 4109, 4317, 4318, 4331, 4330
3566, 4097, 4098, 4111, 4110, 4318, 4319, 4332, 4331
3567, 4098, 4099, 4112, 4111, 4319, 4320, 4333, 4332
3568, 4099, 4100, 4113, 4112, 4320, 4321, 4334, 4333
3569, 4100, 4101, 4114, 4113, 4321, 4322, 4335, 4334
3570, 4101, 4102, 4115, 4114, 4322, 4323, 4336, 4335
3571, 4102, 4103, 4116, 4115, 4323, 4324, 4337, 4336
3572, 4103, 4104, 4117, 4116, 4324, 4325, 4338, 4337
3573, 4104, 4105, 4118, 4117, 4325, 4326, 4339, 4338
3574, 4105, 4106, 4119, 4118, 4326, 4327, 4340, 4339
3575, 4106, 4107, 4120, 4119, 4327, 4328, 4341, 4340
3576, 4107, 4108, 4121, 4120, 4328, 4329, 4342, 4341
3577, 4109, 4110, 4123, 4122, 4330, 4331, 4344, 4343
3578, 4110, 4111, 4124, 4123, 4331, 4332, 4345, 4344
3579, 4111, 4112, 4125, 4124, 4332, 4333, 4346, 4345
3580, 4112, 4113, 4126, 4125, 4333, 4334, 4347, 4346
3581, 4113, 4114, 4127, 4126, 4334, 4335, 4348, 4347
3582, 4114, 4115, 4128, 4127, 4335, 4336, 4349, 4348
3583, 4115, 4116, 4129, 4128, 4336, 4337, 4350, 4349
3584, 4116, 4117, 4130, 4129, 4337, 4338, 4351, 4350
3585, 4117, 4118, 4131, 4130, 4338, 4339, 4352, 4351
3586, 4118, 4119, 4132, 4131, 4339, 4340, 4353, 4352
3587, 4119, 4120, 4133, 4132, 4340, 4341, 4354, 4353
3588, 4120, 4121, 4134, 4133, 4341, 4342, 4355, 4354
3589, 4122, 4123, 4136, 4135, 4343, 4344, 4357, 4356
3590, 4123, 4124, 4137, 4136, 4344, 4345, 4358, 4357
3591, 4124, 4125, 4138, 4137, 4345, 4346, 4359, 4358
3592, 4125, 4126, 4139, 4138, 4346, 4347, 4360, 4359
3593, 4126, 4127, 4140, 4139, 4347, 4348, 4361, 4360
3594, 4127, 4128, 4141, 4140, 4348, 4349, 4362, 4361
3595, 4128, 4129, 4142, 4141, 4349, 4350, 4363, 4362
3596, 4129, 4130, 4143, 4142, 4350, 4351, 4364, 4363
3597, 4130, 4131, 4144, 4143, 4351, 4352, 4365, 4364
3598, 4131, 4132, 4145, 4144, 4352, 4353, 4366, 4365
3599, 4132, 4133, 4146, 4145, 4353, 4354, 4367, 4366
3600, 4133, 4134, 4147, 4146, 4354, 4355, 4368, 4367
3601, 4135, 4136, 4149, 4148, 4356, 4357, 4370, 4369
3602, 4136, 4137, 4150, 4149, 4357, 4358, 4371, 4370
3603, 4137, 4138, 4151, 4150, 4358, 4359, 4372, 4371
3604, 4138, 4139, 4152, 4151, 4359, 4360, 4373, 4372
3605, 4139, 4140, 4153, 4152, 4360, 4361, 4374, 4373
3606, 4140, 4141, 4154, 4153, 4361, 4362, 4375, 4374
3607, 4141, 4142, 4155, 4154, 4362, 4363, 4376, 4375
3608, 4142, 4143, 4156, 4155, 4363, 4364, 4377, 4376
3609, 4143, 4144, 4157, 4156, 4364, 4365, 4378, 4377
3610, 4144, 4145, 4158, 4157, 4365, 4366, 4379, 4378
3611, 4145, 4146, 4159, 4158, 4366, 4367, 4380, 4379
3612, 4146, 4147, 4160, 4159, 4367, 4368, 4381, 4380
3613, 4148, 4149, 4162, 4161, 4369, 4370, 4383, 4382
3614, 4149, 4150, 4163, 4162, 4370, 4371, 4384, 4383
3615, 4150, 4151, 4164, 4163, 4371, 4372, 4385, 4384
3616, 4151, 4152, 4165, 4164, 4372, 4373, 4386, 4385
3617, 4152, 4153, 4166, 4165, 4373, 4374, 4387, 4386
3618, 4153, 4154, 4167, 4166, 4374, 4375, 4388, 4387
3619, 4154, 4155, 4168, 4167, 4375, 4376, 4389, 4388
3620, 4155, 4156, 4169, 4168, 4376, 4377, 4390, 4389
3621, 4156, 4157, 4170, 4169, 4377, 4378, 4391, 4390
3622, 4157, 4158, 4171, 4170, 4378, 4379, 4392, 4391
3623, 4158, 4159, 4172, 4171, 4379, 4380, 4393, 4392
3624, 4159, 4160, 4173, 4172, 4380, 4381, 4394, 4393
3625, 4161, 4162, 4175, 4174, 4382, 4383, 4396, 4395
3626, 4162, 4163, 4176, 4175, 4383, 4384, 4397, 4396
3627, 4163, 4164, 4177, 4176, 4384, 4385, 4398, 4397
3628, 4164, 4165, 4178, 4177, 4385, 4386, 4399, 4398
3629, 4165, 4166, 4179, 4178, 4386, 4387, 4400, 4399
3630, 4166, 4167, 4180, 4179, 4387, 4388, 4401, 4400
3631, 4167, 4168, 4181, 4180, 4388, 4389, 4402, 4401
3632, 4168, 4169, 4182, 4181, 4389, 4390, 4403, 4402
3633, 4169, 4170, 4183, 4182, 4390, 4391, 4404, 4403
3634, 4170, 4171, 4184, 4183, 4391, 4392, 4405, 4404
3635, 4171, 4172, 4185, 4184, 4392, 4393, 4406, 4405
3636, 4172, 4173, 4186, 4185, 4393, 4394, 4407, 4406
3637, 4174, 4175, 4188, 4187, 4395, 4396, 4409, 4408
3638, 4175, 4176, 4189, 4188, 4396, 4397, 4410, 4409
3639, 4176, 4177, 4190, 4189, 4397, 4398, 4411, 4410
3640, 4177, 4178, 4191, 4190, 4398, 4399, 4412, 4411
3641, 4178, 4179, 4192, 4191, 4399, 4400, 4413, 4412
3642, 4179, 4180, 4193, 4192, 4400, 4401, 4414, 4413
3643, 4180, 4181, 4194, 4193, 4401, 4402, 4415, 4414
3644, 4181, 4182, 4195, 4194, 4402, 4403, 4416, 4415
3645, 4182, 4183, 4196, 4195, 4403, 4404, 4417, 4416
3646, 4183, 4184, 4197, 4196, 4404, 4405, 4418, 4417
3647, 4184, 4185, 4198, 4197, 4405, 4406, 4419, 4418
3648, 4185, 4186, 4199, 4198, 4406, 4407, 4420, 4419
3649, 4200, 4201, 4214, 4213, 4421, 4422, 4435, 4434
3650, 4201, 4202, 4215, 4214, 4422, 4423, 4436, 4435
3651, 4202, 4203, 4216, 4215, 4423, 4424, 4437, 4436
3652, 4203, 4204, 4217, 4216, 4424, 4425, 4438, 4437
3653, 4204, 4205, 4218, 4217, 4425, 4426, 4439, 4438
3654, 4205, 4206, 4219, 4218, 4426, 4427, 4440, 4439
3655, 4206, 4207, 4220, 4219, 4427, 4428, 4441, 4440
3656, 4207, 4208, 4221, 4220, 4428, 4429, 4442, 4441
3657, 4208, 4209, 4222, 4221, 4429, 4430, 4443, 4442
3658, 4209, 4210, 4223, 4222, 4430, 4431, 4444, 4443
3659, 4210, 4211, 4224, 4223, 4431, 4432, 4445, 4444
3660, 4211, 4212, 4225, 4224, 4432, 4433, 4446, 4445
3661, 4213, 4214, 4227, 4226, 4434, 4435, 4448, 4447
3662, 4214, 4215, 4228, 4227, 4435, 4436, 4449, 4448
3663, 4215, 4216, 4229, 4228, 4436, 4437, 4450, 4449
3664, 4216, 4217, 4230, 4229, 4437, 4438, 4451, 4450
3665, 4217, 4218, 4231, 4230, 4438, 4439, 4452, 4451
3666, 4218, 4219, 4232, 4231, 4439, 4440, 4453, 4452
3667, 4219, 4220, 4233, 4232, 4440, 4441, 4454, 4453
3668, 4220, 4221, 4234, 4233, 4441, 4442, 4455, 4454
3669, 4221, 4222, 4235, 4234, 4442, 4443, 4456, 4455
3670, 4222, 4223, 4236, 4235, 4443, 4444, 4457, 4456
3671, 4223, 4224, 4237, 4236, 4444, 4445, 4458, 4457
3672, 4224, 4225, 4238, 4237, 4445, 4446, 4459, 4458
3673, 4226, 4227, 4240, 4239, 4447, 4448, 4461, 4460
3674, 4227, 4228, 4241, 4240, 4448, 4449, 4462, 4461
3675, 4228, 4229, 4242, 4241, 4449, 4450, 4463, 4462
3676, 4229, 4230, 4243, 4242, 4450, 4451, 4464, 4463
3677, 4230, 4231, 4244, 4243, 4451, 4452, 4465, 4464
3678, 4231, 4232, 4245, 4244, 4452, 4453, 4466, 4465
3679, 4232, 4233, 4246, 4245, 4453, 4454, 4467, 4466
3680, 4233, 4234, 4247, 4246, 4454, 4455, 4468, 4467
3681, 4234, 4235, 4248, 4247, 4455, 4456, 4469, 4468
3682, 4235, 4236, 4249, 4248, 4456, 4457, 4470, 4469
3683, 4236, 4237, 4250, 4249, 4457, 4458, 4471, 4470
3684, 4237, 4238, 4251, 4250, 4458, 4459, 4472, 4471
3685, 4239, 4240, 4253, 4252, 4460, 4461, 4474, 4473
3686, 4240, 4241, 4254, 4253, 4461, 4462, 4475, 4474
3687, 4241, 4242, 4255, 4254, 4462, 4463, 4476, 4475
3688, 4242, 4243, 4256, 4255, 4463, 4464, 4477, 4476
3689, 4243, 4244, 4257, 4256, 4464, 4465, 4478, 4477
3690, 4244, 4245, 4258, 4257, 4465, 4466, 4479, 4478
3691, 4245, 4246, 4259, 4258, 4466, 4467, 4480, 4479
3692, 4246, 4247, 4260, 4259, 4467, 4468, 4481, 4480
3693, 4247, 4248, 4261, 4260, 4468, 4469, 4482, 4481
3694, 4248, 4249, 4262, 4261, 4469, 4470, 4483, 4482
3695, 4249, 4250, 4263, 4262, 4470, 4471, 4484, 4483
3696, 4250, 4251, 4264, 4263, 4471, 4472, 4485, 4484
3697, 4252, 4253, 4266, 4265, 4473, 4474, 4487, 4486
3698, 4253, 4254, 4267, 4266, 4474, 4475, 4488, 4487
3699, 4254, 4255, 4268, 4267, 4475, 4476, 4489, 4488
3700, 4255, 4256, 4269, 4268, 4476, 4477, 4490, 4489
3701, 4256, 4257, 4270, 4269, 4477, 4478, 4491, 4490
3702, 4257, 4258, 4271, 4270, 4478, 4479, 4492, 4491
3703, 4258, 4259, 4272, 4271, 4479, 4480, 4493, 4492
3704, 4259, 4260, 4273, 4272, 4480, 4481, 4494, 4493
3705, 4260, 4261, 4274, 4273, 4481, 4482, 4495, 4494
3706, 4261, 4262, 4275, 4274, 4482, 4483, 4496, 4495
3707, 4262, 4263, 4276, 4275, 4483, 4484, 4497, 4496
3708, 4263, 4264, 4277, 4276, 4484, 4485, 4498, 4497
3709, 4265, 4266, 4279, 4278, 4486, 4487, 4500, 4499
3710, 4266, 4267, 4280, 4279, 4487, 4488, 4501, 4500
3711, 4267, 4268, 4281, 4280, 4488, 4489, 4502, 4501
3712, 4268, 4269, 4282, 4281, 4489, 4490, 4503, 4502
3713, 4269, 4270, 4283, 4282, 4490, 4491, 4504, 4503
3714, 4270, 4271, 4284, 4283, 4491, 4492, 4505, 4504
3715, 4271, 4272, 4285, 4284, 4492, 4493, 4506, 4505
3716, 4272, 4273, 4286, 4285, 4493, 4494, 4507, 4506
3717, 4273, 4274, 4287, 4286, 4494, 4495, 4508, 4507
3718, 4274, 4275, 4288, 4287, 4495, 4496, 4509, 4508
3719, 4275, 4276, 4289, 4288, 4496, 4497, 4510, 4509
3720, 4276, 4277, 4290, 4289, 4497, 4498, 4511, 4510
3721, 4278, 4279, 4292, 4291, 4499, 4500, 4513, 4512
3722, 4279, 4280, 4293, 4292, 4500, 4501, 4514, 4513
3723, 4280, 4281, 4294, 4293, 4501, 4502, 4515, 4514
3724, 4281, 4282, 4295, 4294, 4502, 4503, 4516, 4515
3725, 4282, 4283, 4296, 4295, 4503, 4504, 4517, 4516
3726, 4283, 4284, 4297, 4296, 4504, 4505, 4518, 4517
3727, 4284, 4285, 4298, 4297, 4505, 4506, 4519, 4518
3728, 4285, 4286, 4299, 4298, 4506, 4507, 4520, 4519
3729, 4286, 4287, 4300, 4299, 4507, 4508, 4521, 4520
3730, 4287, 4288, 4301, 4300, 4508, 4509, 4522, 4521
3731, 4288, 4289, 4302, 4301, 4509, 4510, 4523, 4522
3732, 4289, 4290, 4303, 4302, 4510, 4511, 4524, 4523
3733, 4291, 4292, 4305, 4304, 4512, 4513, 4526, 4525
3734, 4292, 4293, 4306, 4305, 4513, 4514, 4527, 4526
3735, 4293, 4294, 4307, 4306, 4514, 4515, 4528, 4527
3736, 4294, 4295, 4308, 4307, 4515, 4516, 4529, 4528
3737, 4295, 4296, 4309, 4308, 4516, 4517, 4530, 4529
3738, 4296, 4297, 4310, 4309, 4517, 4518, 4531, 4530
3739, 4297, 4298, 4311, 4310, 4518, 4519, 4532, 4531
3740, 4298, 4299, 4312, 4311, 4519, 4520, 4533, 4532
3741, 4299, 4300, 4313, 4312, 4520, 4521, 4534, 4533
3742, 4300, 4301, 4314, 4313, 4521, 4522, 4535, 4534
3743, 4301, 4302, 4315, 4314, 4522, 4523, 4536, 4535
3744, 4302, 4303, 4316, 4315, 4523, 4524, 4537, 4536
3745, 4304, 4305, 4318, 4317, 4525, 4526, 4539, 4538
3746, 4305, 4306, 4319, 4318, 4526, 4527, 4540, 4539
3747, 4306, 4307, 4320, 4319, 4527, 4528, 4541, 4540
3748, 4307, 4308, 4321, 4320, 4528, 4529, 4542, 4541
3749, 4308, 4309, 4322, 4321, 4529, 4530, 4543, 4542
3750, 4309, 4310, 4323, 4322, 4530, 4531, 4544, 4543
3751, 4310, 4311, 4324, 4323, 4531, 4532, 4545, 4544
3752, 4311, 4312, 4325, 4324, 4532, 4533, 4546, 4545
3753, 4312, 4313, 4326, 4325, 4533, 4534, 4547, 4546
3754, 4313, 4314, 4327, 4326, 4534, 4535, 4548, 4547
3755, 4314, 4315, 4328, 4327, 4535, 4536, 4549, 4548
3756, 4315, 4316, 4329, 4328, 4536, 4537, 4550, 4549
3757, 4317, 4318, 4331, 4330, 4538, 4539, 4552, 4551
3758, 4318, 4319, 4332, 4331, 4539, 4540, 4553, 4552
3759, 4319, 4320, 4333, 4332, 4540, 4541, 4554, 4553
3760, 4320, 4321, 4334, 4333, 4541, 4542, 4555, 4554
3761, 4321, 4322, 4335, 4334, 4542, 4543, 4556, 4555
3762, 4322, 4323, 4336, 4335, 4543, 4544, 4557, 4556
3763, 4323, 4324, 4337, 4336, 4544, 4545, 4558, 4557
3764, 4324, 4325, 4338, 4337, 4545, 4546, 4559, 4558
3765, 4325, 4326, 4339, 4338, 4546, 4547, 4560, 4559
3766, 4326, 4327, 4340, 4339, 4547, 4548, 4561, 4560
3767, 4327, 4328, 4341, 4340, 4548, 4549, 4562, 4561
3768, 4328, 4329, 4342, 4341, 4549, 4550, 4563, 4562
3769, 4330, 4331, 4344, 4343, 4551, 4552, 4565, 4564
3770, 4331, 4332, 4345, 4344, 4552, 4553, 4566, 4565
3771, 4332, 4333, 4346, 4345, 4553, 4554, 4567, 4566
3772, 4333, 4334, 4347, 4346, 4554, 4555, 4568, 4567
3773, 4334, 4335, 4348, 4347, 4555, 4556, 4569, 4568
3774, 4335, 4336, 4349, 4348, 4556, 4557, 4570, 4569
3775, 4336, 4337, 4350, 4349, 4557, 4558, 4571, 4570
3776, 4337, 4338, 4351, 4350, 4558, 4559, 4572, 4571
3777, 4338, 4339, 4352, 4351, 4559, 4560, 4573, 4572
3778, 4339, 4340, 4353, 4352, 4560, 4561, 4574, 4573
3779, 4340, 4341, 4354, 4353, 4561, 4562, 4575, 4574
3780, 4341, 4342, 4355, 4354, 4562, 4563, 4576, 4575
3781, 4343, 4344, 4357, 4356, 4564, 4565, 4578, 4577
3782, 4344, 4345, 4358, 4357, 4565, 4566, 4579, 4578
3783, 4345, 4346, 4359, 4358, 4566, 4567, 4580, 4579
3784, 4346, 4347, 4360, 4359, 4567, 4568, 4581, 4580
3785, 4347, 4348, 4361, 4360, 4568, 4569, 4582, 4581
3786, 4348, 4349, 4362, 4361, 4569, 4570, 4583, 4582
3787, 4349, 4350, 4363, 4362, 4570, 4571, 4584, 4583
3788, 4350, 4351, 4364, 4363, 4571, 4572, 4585, 4584
3789, 4351, 4352, 4365, 4364, 4572, 4573, 4586, 4585
3790, 4352, 4353, 4366, 4365, 4573, 4574, 4587, 4586
3791, 4353, 4354, 4367, 4366, 4574, 4575, 4588, 4587
3792, 4354, 4355, 4368, 4367, 4575, 4576, 4589, 4588
3793, 4356, 4357, 4370, 4369, 4577, 4578, 4591, 4590
3794, 4357, 4358, 4371, 4370, 4578, 4579, 4592, 4591
3795, 4358, 4359, 4372, 4371, 4579, 4580, 4593, 4592
3796, 4359, 4360, 4373, 4372, 4580, 4581, 4594, 4593
3797, 4360, 4361, 4374, 4373, 4581, 4582, 4595, 4594
3798, 4361, 4362, 4375, 4374, 4582, 4583, 4596, 4595
3799, 4362, 4363, 4376, 4375, 4583, 4584, 4597, 4596
3800, 4363, 4364, 4377, 4376, 4584, 4585, 4598, 4597
3801, 4364, 4365, 4378, 4377, 4585, 4586, 4599, 4598
3802, 4365, 4366, 4379, 4378, 4586, 4587, 4600, 4599
3803, 4366, 4367, 4380, 4379, 4587, 4588, 4601, 4600
3804, 4367, 4368, 4381, 4380, 4588, 4589, 4602, 4601
3805, 4369, 4370, 4383, 4382, 4590, 4591, 4604, 4603
3806, 4370, 4371, 4384, 4383, 4591, 4592, 4605, 4604
3807, 4371, 4372, 4385, 4384, 4592, 4593, 4606, 4605
3808, 4372, 4373, 4386, 4385, 4593, 4594, 4607, 4606
3809, 4373, 4374, 4387, 4386, 4594, 4595, 4608, 4607
3810, 4374, 4375, 4388, 4387, 4595, 4596, 4609, 4608
3811, 4375, 4376, 4389, 4388, 4596, 4597, 4610, 4609
3812, 4376, 4377, 4390, 4389, 4597, 4598, 4611, 4610
3813, 4377, 4378, 4391, 4390, 4598, 4599, 4612, 4611
3814, 4378, 4379, 4392, 4391, 4599, 4600, 4613, 4612
3815, 4379, 4380, 4393, 4392, 4600, 4601, 4614, 4613
3816, 4380, 4381, 4394, 4393, 4601, 4602, 4615, 4614
3817, 4382, 4383, 4396, 4395, 4603, 4604, 4617, 4616
3818, 4383, 4384, 4397, 4396, 4604, 4605, 4618, 4617
3819, 4384, 4385, 4398, 4397, 4605, 4606, 4619, 4618
3820, 4385, 4386, 4399, 4398, 4606, 4607, 4620, 4619
3821, 4386, 4387, 4400, 4399, 4607, 4608, 4621, 4620
3822, 4387, 4388, 4401, 4400, 4608, 4609, 4622, 4621
3823, 4388, 4389, 4402, 4401, 4609, 4610, 4623, 4622
3824, 4389, 4390, 4403, 4402, 4610, 4611, 4624, 4623
3825, 4390, 4391, 4404, 4403, 4611, 4612, 4625, 4624
3826, 4391, 4392, 4405, 4404, 4612, 4613, 4626, 4625
3827, 4392, 4393, 4406, 4405, 4613, 4614, 4627, 4626
3828, 4393, 4394, 4407, 4406, 4614, 4615, 4628, 4627
3829, 4395, 4396, 4409, 4408, 4616, 4617, 4630, 4629
3830, 4396, 4397, 4410, 4409, 4617, 4618, 4631, 4630
3831, 4397, 4398, 4411, 4410, 4618, 4619, 4632, 4631
3832, 4398, 4399, 4412, 4411, 4619, 4620, 4633, 4632
3833, 4399, 4400, 4413, 4412, 4620, 4621, 4634, 4633
3834, 4400, 4401, 4414, 4413, 4621, 4622, 4635, 4634
3835, 4401, 4402, 4415, 4414, 4622, 4623, 4636, 4635
3836, 4402, 4403, 4416, 4415, 4623, 4624, 4637, 4636
3837, 4403, 4404, 4417, 4416, 4624, 4625, 4638, 4637
3838, 4404, 4405, 4418, 4417, 4625, 4626, 4639, 4638
3839, 4405, 4406, 4419, 4418, 4626, 4627, 4640, 4639
3840, 4406, 4407, 4420, 4419, 4627, 4628, 4641, 4640
*Nset, nset=ALL_NODES, generate
1, 4641, 1
*Elset, elset=BOTTOM_ELEMENTS
1, 2, 3, 4, 5, 6, 7, 8, 9, 10, 11, 12, 13, 14, 15, 16
17, 18, 19, 20, 21, 22, 23, 24, 25, 26, 27, 28, 29, 30, 31, 32
33, 34, 35, 36, 37, 38, 39, 40, 41, 42, 43, 44, 45, 46, 47, 48
49, 50, 51, 52, 53, 54, 55, 56, 57, 58, 59, 60, 61, 62, 63, 64
65, 66, 67, 68, 69, 70, 71, 72, 73, 74, 75, 76, 77, 78, 79, 80
81, 82, 83, 84, 85, 86, 87, 88, 89, 90, 91, 92, 93, 94, 95, 96
97, 98, 99, 100, 101, 102, 103, 104, 105, 106, 107, 108, 109, 110, 111, 112
113, 114, 115, 116, 117, 118, 119, 120, 121, 122, 123, 124, 125, 126, 127, 128
129, 130, 131, 132, 133, 134, 135, 136, 137, 138, 139, 140, 141, 142, 143, 144
145, 146, 147, 148, 149, 150, 151, 152, 153, 154, 155, 156, 157, 158, 159, 160
161, 162, 163, 164, 165, 166, 167, 168, 169, 170, 171, 172, 173, 174, 175, 176
177, 178, 179, 180, 181, 182, 183, 184, 185, 186, 187, 188, 189, 190, 191, 192
*Surface, type=ELEMENT, name=IMPACT_FACE
BOTTOM_ELEMENTS, S1
*Solid Section, elset=ALL_ELEMENTS, material=POLYUREA_RNO
,
*End Part
*Part, name=WALL
*Node
10001, -1.000000000000e-02, -1.000000000000e-02, -5.000000000000e-03
10002, -9.090909090909e-03, -1.000000000000e-02, -5.000000000000e-03
10003, -8.181818181818e-03, -1.000000000000e-02, -5.000000000000e-03
10004, -7.272727272727e-03, -1.000000000000e-02, -5.000000000000e-03
10005, -6.363636363636e-03, -1.000000000000e-02, -5.000000000000e-03
10006, -5.454545454545e-03, -1.000000000000e-02, -5.000000000000e-03
10007, -4.545454545455e-03, -1.000000000000e-02, -5.000000000000e-03
10008, -3.636363636364e-03, -1.000000000000e-02, -5.000000000000e-03
10009, -2.727272727273e-03, -1.000000000000e-02, -5.000000000000e-03
10010, -1.818181818182e-03, -1.000000000000e-02, -5.000000000000e-03
10011, -9.090909090909e-04, -1.000000000000e-02, -5.000000000000e-03
10012, 0.000000000000e+00, -1.000000000000e-02, -5.000000000000e-03
10013, 9.090909090909e-04, -1.000000000000e-02, -5.000000000000e-03
10014, 1.818181818182e-03, -1.000000000000e-02, -5.000000000000e-03
10015, 2.727272727273e-03, -1.000000000000e-02, -5.000000000000e-03
10016, 3.636363636364e-03, -1.000000000000e-02, -5.000000000000e-03
10017, 4.545454545455e-03, -1.000000000000e-02, -5.000000000000e-03
10018, 5.454545454545e-03, -1.000000000000e-02, -5.000000000000e-03
10019, 6.363636363636e-03, -1.000000000000e-02, -5.000000000000e-03
10020, 7.272727272727e-03, -1.000000000000e-02, -5.000000000000e-03
10021, 8.181818181818e-03, -1.000000000000e-02, -5.000000000000e-03
10022, 9.090909090909e-03, -1.000000000000e-02, -5.000000000000e-03
10023, 1.000000000000e-02, -1.000000000000e-02, -5.000000000000e-03
10024, -1.000000000000e-02, 0.000000000000e+00, -5.000000000000e-03
10025, -9.090909090909e-03, 0.000000000000e+00, -5.000000000000e-03
10026, -8.181818181818e-03, 0.000000000000e+00, -5.000000000000e-03
10027, -7.272727272727e-03, 0.000000000000e+00, -5.000000000000e-03
10028, -6.363636363636e-03, 0.000000000000e+00, -5.000000000000e-03
10029, -5.454545454545e-03, 0.000000000000e+00, -5.000000000000e-03
10030, -4.545454545455e-03, 0.000000000000e+00, -5.000000000000e-03
10031, -3.636363636364e-03, 0.000000000000e+00, -5.000000000000e-03
10032, -2.727272727273e-03, 0.000000000000e+00, -5.000000000000e-03
10033, -1.818181818182e-03, 0.000000000000e+00, -5.000000000000e-03
10034, -9.090909090909e-04, 0.000000000000e+00, -5.000000000000e-03
10035, 0.000000000000e+00, 0.000000000000e+00, -5.000000000000e-03
10036, 9.090909090909e-04, 0.000000000000e+00, -5.000000000000e-03
10037, 1.818181818182e-03, 0.000000000000e+00, -5.000000000000e-03
10038, 2.727272727273e-03, 0.000000000000e+00, -5.000000000000e-03
10039, 3.636363636364e-03, 0.000000000000e+00, -5.000000000000e-03
10040, 4.545454545455e-03, 0.000000000000e+00, -5.000000000000e-03
10041, 5.454545454545e-03, 0.000000000000e+00, -5.000000000000e-03
10042, 6.363636363636e-03, 0.000000000000e+00, -5.000000000000e-03
10043, 7.272727272727e-03, 0.000000000000e+00, -5.000000000000e-03
10044, 8.181818181818e-03, 0.000000000000e+00, -5.000000000000e-03
10045, 9.090909090909e-03, 0.000000000000e+00, -5.000000000000e-03
10046, 1.000000000000e-02, 0.000000000000e+00, -5.000000000000e-03
10047, -1.000000000000e-02, 1.000000000000e-02, -5.000000000000e-03
10048, -9.090909090909e-03, 1.000000000000e-02, -5.000000000000e-03
10049, -8.181818181818e-03, 1.000000000000e-02, -5.000000000000e-03
10050, -7.272727272727e-03, 1.000000000000e-02, -5.000000000000e-03
10051, -6.363636363636e-03, 1.000000000000e-02, -5.000000000000e-03
10052, -5.454545454545e-03, 1.000000000000e-02, -5.000000000000e-03
10053, -4.545454545455e-03, 1.000000000000e-02, -5.000000000000e-03
10054, -3.636363636364e-03, 1.000000000000e-02, -5.000000000000e-03
10055, -2.727272727273e-03, 1.000000000000e-02, -5.000000000000e-03
10056, -1.818181818182e-03, 1.000000000000e-02, -5.000000000000e-03
10057, -9.090909090909e-04, 1.000000000000e-02, -5.000000000000e-03
10058, 0.000000000000e+00, 1.000000000000e-02, -5.000000000000e-03
10059, 9.090909090909e-04, 1.000000000000e-02, -5.000000000000e-03
10060, 1.818181818182e-03, 1.000000000000e-02, -5.000000000000e-03
10061, 2.727272727273e-03, 1.000000000000e-02, -5.000000000000e-03
10062, 3.636363636364e-03, 1.000000000000e-02, -5.000000000000e-03
10063, 4.545454545455e-03, 1.000000000000e-02, -5.000000000000e-03
10064, 5.454545454545e-03, 1.000000000000e-02, -5.000000000000e-03
10065, 6.363636363636e-03, 1.000000000000e-02, -5.000000000000e-03
10066, 7.272727272727e-03, 1.000000000000e-02, -5.000000000000e-03
10067, 8.181818181818e-03, 1.000000000000e-02, -5.000000000000e-03
10068, 9.090909090909e-03, 1.000000000000e-02, -5.000000000000e-03
10069, 1.000000000000e-02, 1.000000000000e-02, -5.000000000000e-03
10070, -1.000000000000e-02, -1.000000000000e-02, -2.500000000000e-03
10071, -9.090909090909e-03, -1.000000000000e-02, -2.500000000000e-03
10072, -8.181818181818e-03, -1.000000000000e-02, -2.500000000000e-03
10073, -7.272727272727e-03, -1.000000000000e-02, -2.500000000000e-03
10074, -6.363636363636e-03, -1.000000000000e-02, -2.500000000000e-03
10075, -5.454545454545e-03, -1.000000000000e-02, -2.500000000000e-03
10076, -4.545454545455e-03, -1.000000000000e-02, -2.500000000000e-03
10077, -3.636363636364e-03, -1.000000000000e-02, -2.500000000000e-03
10078, -2.727272727273e-03, -1.000000000000e-02, -2.500000000000e-03
10079, -1.818181818182e-03, -1.000000000000e-02, -2.500000000000e-03
10080, -9.090909090909e-04, -1.000000000000e-02, -2.500000000000e-03
10081, 0.000000000000e+00, -1.000000000000e-02, -2.500000000000e-03
10082, 9.090909090909e-04, -1.000000000000e-02, -2.500000000000e-03
10083, 1.818181818182e-03, -1.000000000000e-02, -2.500000000000e-03
10084, 2.727272727273e-03, -1.000000000000e-02, -2.500000000000e-03
10085, 3.636363636364e-03, -1.000000000000e-02, -2.500000000000e-03
10086, 4.545454545455e-03, -1.000000000000e-02, -2.500000000000e-03
10087, 5.454545454545e-03, -1.000000000000e-02, -2.500000000000e-03
10088, 6.363636363636e-03, -1.000000000000e-02, -2.500000000000e-03
10089, 7.272727272727e-03, -1.000000000000e-02, -2.500000000000e-03
10090, 8.181818181818e-03, -1.000000000000e-02, -2.500000000000e-03
10091, 9.090909090909e-03, -1.000000000000e-02, -2.500000000000e-03
10092, 1.000000000000e-02, -1.000000000000e-02, -2.500000000000e-03
10093, -1.000000000000e-02, 0.000000000000e+00, -2.500000000000e-03
10094, -9.090909090909e-03, 0.000000000000e+00, -2.500000000000e-03
10095, -8.181818181818e-03, 0.000000000000e+00, -2.500000000000e-03
10096, -7.272727272727e-03, 0.000000000000e+00, -2.500000000000e-03
10097, -6.363636363636e-03, 0.000000000000e+00, -2.500000000000e-03
10098, -5.454545454545e-03, 0.000000000000e+00, -2.500000000000e-03
10099, -4.545454545455e-03, 0.000000000000e+00, -2.500000000000e-03
10100, -3.636363636364e-03, 0.000000000000e+00, -2.500000000000e-03
10101, -2.727272727273e-03, 0.000000000000e+00, -2.500000000000e-03
10102, -1.818181818182e-03, 0.000000000000e+00, -2.500000000000e-03
10103, -9.090909090909e-04, 0.000000000000e+00, -2.500000000000e-03
10104, 0.000000000000e+00, 0.000000000000e+00, -2.500000000000e-03
10105, 9.090909090909e-04, 0.000000000000e+00, -2.500000000000e-03
10106, 1.818181818182e-03, 0.000000000000e+00, -2.500000000000e-03
10107, 2.727272727273e-03, 0.000000000000e+00, -2.500000000000e-03
10108, 3.636363636364e-03, 0.000000000000e+00, -2.500000000000e-03
10109, 4.545454545455e-03, 0.000000000000e+00, -2.500000000000e-03
10110, 5.454545454545e-03, 0.000000000000e+00, -2.500000000000e-03
10111, 6.363636363636e-03, 0.000000000000e+00, -2.500000000000e-03
10112, 7.272727272727e-03, 0.000000000000e+00, -2.500000000000e-03
10113, 8.181818181818e-03, 0.000000000000e+00, -2.500000000000e-03
10114, 9.090909090909e-03, 0.000000000000e+00, -2.500000000000e-03
10115, 1.000000000000e-02, 0.000000000000e+00, -2.500000000000e-03
10116, -1.000000000000e-02, 1.000000000000e-02, -2.500000000000e-03
10117, -9.090909090909e-03, 1.000000000000e-02, -2.500000000000e-03
10118, -8.181818181818e-03, 1.000000000000e-02, -2.500000000000e-03
10119, -7.272727272727e-03, 1.000000000000e-02, -2.500000000000e-03
10120, -6.363636363636e-03, 1.000000000000e-02, -2.500000000000e-03
10121, -5.454545454545e-03, 1.000000000000e-02, -2.500000000000e-03
10122, -4.545454545455e-03, 1.000000000000e-02, -2.500000000000e-03
10123, -3.636363636364e-03, 1.000000000000e-02, -2.500000000000e-03
10124, -2.727272727273e-03, 1.000000000000e-02, -2.500000000000e-03
10125, -1.818181818182e-03, 1.000000000000e-02, -2.500000000000e-03
10126, -9.090909090909e-04, 1.000000000000e-02, -2.500000000000e-03
10127, 0.000000000000e+00, 1.000000000000e-02, -2.500000000000e-03
10128, 9.090909090909e-04, 1.000000000000e-02, -2.500000000000e-03
10129, 1.818181818182e-03, 1.000000000000e-02, -2.500000000000e-03
10130, 2.727272727273e-03, 1.000000000000e-02, -2.500000000000e-03
10131, 3.636363636364e-03, 1.000000000000e-02, -2.500000000000e-03
10132, 4.545454545455e-03, 1.000000000000e-02, -2.500000000000e-03
10133, 5.454545454545e-03, 1.000000000000e-02, -2.500000000000e-03
10134, 6.363636363636e-03, 1.000000000000e-02, -2.500000000000e-03
10135, 7.272727272727e-03, 1.000000000000e-02, -2.500000000000e-03
10136, 8.181818181818e-03, 1.000000000000e-02, -2.500000000000e-03
10137, 9.090909090909e-03, 1.000000000000e-02, -2.500000000000e-03
10138, 1.000000000000e-02, 1.000000000000e-02, -2.500000000000e-03
10139, -1.000000000000e-02, -1.000000000000e-02, 0.000000000000e+00
10140, -9.090909090909e-03, -1.000000000000e-02, 0.000000000000e+00
10141, -8.181818181818e-03, -1.000000000000e-02, 0.000000000000e+00
10142, -7.272727272727e-03, -1.000000000000e-02, 0.000000000000e+00
10143, -6.363636363636e-03, -1.000000000000e-02, 0.000000000000e+00
10144, -5.454545454545e-03, -1.000000000000e-02, 0.000000000000e+00
10145, -4.545454545455e-03, -1.000000000000e-02, 0.000000000000e+00
10146, -3.636363636364e-03, -1.000000000000e-02, 0.000000000000e+00
10147, -2.727272727273e-03, -1.000000000000e-02, 0.000000000000e+00
10148, -1.818181818182e-03, -1.000000000000e-02, 0.000000000000e+00
10149, -9.090909090909e-04, -1.000000000000e-02, 0.000000000000e+00
10150, 0.000000000000e+00, -1.000000000000e-02, 0.000000000000e+00
10151, 9.090909090909e-04, -1.000000000000e-02, 0.000000000000e+00
10152, 1.818181818182e-03, -1.000000000000e-02, 0.000000000000e+00
10153, 2.727272727273e-03, -1.000000000000e-02, 0.000000000000e+00
10154, 3.636363636364e-03, -1.000000000000e-02, 0.000000000000e+00
10155, 4.545454545455e-03, -1.000000000000e-02, 0.000000000000e+00
10156, 5.454545454545e-03, -1.000000000000e-02, 0.000000000000e+00
10157, 6.363636363636e-03, -1.000000000000e-02, 0.000000000000e+00
10158, 7.272727272727e-03, -1.000000000000e-02, 0.000000000000e+00
10159, 8.181818181818e-03, -1.000000000000e-02, 0.000000000000e+00
10160, 9.090909090909e-03, -1.000000000000e-02, 0.000000000000e+00
10161, 1.000000000000e-02, -1.000000000000e-02, 0.000000000000e+00
10162, -1.000000000000e-02, 0.000000000000e+00, 0.000000000000e+00
10163, -9.090909090909e-03, 0.000000000000e+00, 0.000000000000e+00
10164, -8.181818181818e-03, 0.000000000000e+00, 0.000000000000e+00
10165, -7.272727272727e-03, 0.000000000000e+00, 0.000000000000e+00
10166, -6.363636363636e-03, 0.000000000000e+00, 0.000000000000e+00
10167, -5.454545454545e-03, 0.000000000000e+00, 0.000000000000e+00
10168, -4.545454545455e-03, 0.000000000000e+00, 0.000000000000e+00
10169, -3.636363636364e-03, 0.000000000000e+00, 0.000000000000e+00
10170, -2.727272727273e-03, 0.000000000000e+00, 0.000000000000e+00
10171, -1.818181818182e-03, 0.000000000000e+00, 0.000000000000e+00
10172, -9.090909090909e-04, 0.000000000000e+00, 0.000000000000e+00
10173, 0.000000000000e+00, 0.000000000000e+00, 0.000000000000e+00
10174, 9.090909090909e-04, 0.000000000000e+00, 0.000000000000e+00
10175, 1.818181818182e-03, 0.000000000000e+00, 0.000000000000e+00
10176, 2.727272727273e-03, 0.000000000000e+00, 0.000000000000e+00
10177, 3.636363636364e-03, 0.000000000000e+00, 0.000000000000e+00
10178, 4.545454545455e-03, 0.000000000000e+00, 0.000000000000e+00
10179, 5.454545454545e-03, 0.000000000000e+00, 0.000000000000e+00
10180, 6.363636363636e-03, 0.000000000000e+00, 0.000000000000e+00
10181, 7.272727272727e-03, 0.000000000000e+00, 0.000000000000e+00
10182, 8.181818181818e-03, 0.000000000000e+00, 0.000000000000e+00
10183, 9.090909090909e-03, 0.000000000000e+00, 0.000000000000e+00
10184, 1.000000000000e-02, 0.000000000000e+00, 0.000000000000e+00
10185, -1.000000000000e-02, 1.000000000000e-02, 0.000000000000e+00
10186, -9.090909090909e-03, 1.000000000000e-02, 0.000000000000e+00
10187, -8.181818181818e-03, 1.000000000000e-02, 0.000000000000e+00
10188, -7.272727272727e-03, 1.000000000000e-02, 0.000000000000e+00
10189, -6.363636363636e-03, 1.000000000000e-02, 0.000000000000e+00
10190, -5.454545454545e-03, 1.000000000000e-02, 0.000000000000e+00
10191, -4.545454545455e-03, 1.000000000000e-02, 0.000000000000e+00
10192, -3.636363636364e-03, 1.000000000000e-02, 0.000000000000e+00
10193, -2.727272727273e-03, 1.000000000000e-02, 0.000000000000e+00
10194, -1.818181818182e-03, 1.000000000000e-02, 0.000000000000e+00
10195, -9.090909090909e-04, 1.000000000000e-02, 0.000000000000e+00
10196, 0.000000000000e+00, 1.000000000000e-02, 0.000000000000e+00
10197, 9.090909090909e-04, 1.000000000000e-02, 0.000000000000e+00
10198, 1.818181818182e-03, 1.000000000000e-02, 0.000000000000e+00
10199, 2.727272727273e-03, 1.000000000000e-02, 0.000000000000e+00
10200, 3.636363636364e-03, 1.000000000000e-02, 0.000000000000e+00
10201, 4.545454545455e-03, 1.000000000000e-02, 0.000000000000e+00
10202, 5.454545454545e-03, 1.000000000000e-02, 0.000000000000e+00
10203, 6.363636363636e-03, 1.000000000000e-02, 0.000000000000e+00
10204, 7.272727272727e-03, 1.000000000000e-02, 0.000000000000e+00
10205, 8.181818181818e-03, 1.000000000000e-02, 0.000000000000e+00
10206, 9.090909090909e-03, 1.000000000000e-02, 0.000000000000e+00
10207, 1.000000000000e-02, 1.000000000000e-02, 0.000000000000e+00
*Element, type=C3D8R, elset=ALL_ELEMENTS
10001, 10001, 10002, 10025, 10024, 10070, 10071, 10094, 10093
10002, 10002, 10003, 10026, 10025, 10071, 10072, 10095, 10094
10003, 10003, 10004, 10027, 10026, 10072, 10073, 10096, 10095
10004, 10004, 10005, 10028, 10027, 10073, 10074, 10097, 10096
10005, 10005, 10006, 10029, 10028, 10074, 10075, 10098, 10097
10006, 10006, 10007, 10030, 10029, 10075, 10076, 10099, 10098
10007, 10007, 10008, 10031, 10030, 10076, 10077, 10100, 10099
10008, 10008, 10009, 10032, 10031, 10077, 10078, 10101, 10100
10009, 10009, 10010, 10033, 10032, 10078, 10079, 10102, 10101
10010, 10010, 10011, 10034, 10033, 10079, 10080, 10103, 10102
10011, 10011, 10012, 10035, 10034, 10080, 10081, 10104, 10103
10012, 10012, 10013, 10036, 10035, 10081, 10082, 10105, 10104
10013, 10013, 10014, 10037, 10036, 10082, 10083, 10106, 10105
10014, 10014, 10015, 10038, 10037, 10083, 10084, 10107, 10106
10015, 10015, 10016, 10039, 10038, 10084, 10085, 10108, 10107
10016, 10016, 10017, 10040, 10039, 10085, 10086, 10109, 10108
10017, 10017, 10018, 10041, 10040, 10086, 10087, 10110, 10109
10018, 10018, 10019, 10042, 10041, 10087, 10088, 10111, 10110
10019, 10019, 10020, 10043, 10042, 10088, 10089, 10112, 10111
10020, 10020, 10021, 10044, 10043, 10089, 10090, 10113, 10112
10021, 10021, 10022, 10045, 10044, 10090, 10091, 10114, 10113
10022, 10022, 10023, 10046, 10045, 10091, 10092, 10115, 10114
10023, 10024, 10025, 10048, 10047, 10093, 10094, 10117, 10116
10024, 10025, 10026, 10049, 10048, 10094, 10095, 10118, 10117
10025, 10026, 10027, 10050, 10049, 10095, 10096, 10119, 10118
10026, 10027, 10028, 10051, 10050, 10096, 10097, 10120, 10119
10027, 10028, 10029, 10052, 10051, 10097, 10098, 10121, 10120
10028, 10029, 10030, 10053, 10052, 10098, 10099, 10122, 10121
10029, 10030, 10031, 10054, 10053, 10099, 10100, 10123, 10122
10030, 10031, 10032, 10055, 10054, 10100, 10101, 10124, 10123
10031, 10032, 10033, 10056, 10055, 10101, 10102, 10125, 10124
10032, 10033, 10034, 10057, 10056, 10102, 10103, 10126, 10125
10033, 10034, 10035, 10058, 10057, 10103, 10104, 10127, 10126
10034, 10035, 10036, 10059, 10058, 10104, 10105, 10128, 10127
10035, 10036, 10037, 10060, 10059, 10105, 10106, 10129, 10128
10036, 10037, 10038, 10061, 10060, 10106, 10107, 10130, 10129
10037, 10038, 10039, 10062, 10061, 10107, 10108, 10131, 10130
10038, 10039, 10040, 10063, 10062, 10108, 10109, 10132, 10131
10039, 10040, 10041, 10064, 10063, 10109, 10110, 10133, 10132
10040, 10041, 10042, 10065, 10064, 10110, 10111, 10134, 10133
10041, 10042, 10043, 10066, 10065, 10111, 10112, 10135, 10134
10042, 10043, 10044, 10067, 10066, 10112, 10113, 10136, 10135
10043, 10044, 10045, 10068, 10067, 10113, 10114, 10137, 10136
10044, 10045, 10046, 10069, 10068, 10114, 10115, 10138, 10137
10045, 10070, 10071, 10094, 10093, 10139, 10140, 10163, 10162
10046, 10071, 10072, 10095, 10094, 10140, 10141, 10164, 10163
10047, 10072, 10073, 10096, 10095, 10141, 10142, 10165, 10164
10048, 10073, 10074, 10097, 10096, 10142, 10143, 10166, 10165
10049, 10074, 10075, 10098, 10097, 10143, 10144, 10167, 10166
10050, 10075, 10076, 10099, 10098, 10144, 10145, 10168, 10167
10051, 10076, 10077, 10100, 10099, 10145, 10146, 10169, 10168
10052, 10077, 10078, 10101, 10100, 10146, 10147, 10170, 10169
10053, 10078, 10079, 10102, 10101, 10147, 10148, 10171, 10170
10054, 10079, 10080, 10103, 10102, 10148, 10149, 10172, 10171
10055, 10080, 10081, 10104, 10103, 10149, 10150, 10173, 10172
10056, 10081, 10082, 10105, 10104, 10150, 10151, 10174, 10173
10057, 10082, 10083, 10106, 10105, 10151, 10152, 10175, 10174
10058, 10083, 10084, 10107, 10106, 10152, 10153, 10176, 10175
10059, 10084, 10085, 10108, 10107, 10153, 10154, 10177, 10176
10060, 10085, 10086, 10109, 10108, 10154, 10155, 10178, 10177
10061, 10086, 10087, 10110, 10109, 10155, 10156, 10179, 10178
10062, 10087, 10088, 10111, 10110, 10156, 10157, 10180, 10179
10063, 10088, 10089, 10112, 10111, 10157, 10158, 10181, 10180
10064, 10089, 10090, 10113, 10112, 10158, 10159, 10182, 10181
10065, 10090, 10091, 10114, 10113, 10159, 10160, 10183, 10182
10066, 10091, 10092, 10115, 10114, 10160, 10161, 10184, 10183
10067, 10093, 10094, 10117, 10116, 10162, 10163, 10186, 10185
10068, 10094, 10095, 10118, 10117, 10163, 10164, 10187, 10186
10069, 10095, 10096, 10119, 10118, 10164, 10165, 10188, 10187
10070, 10096, 10097, 10120, 10119, 10165, 10166, 10189, 10188
10071, 10097, 10098, 10121, 10120, 10166, 10167, 10190, 10189
10072, 10098, 10099, 10122, 10121, 10167, 10168, 10191, 10190
10073, 10099, 10100, 10123, 10122, 10168, 10169, 10192, 10191
10074, 10100, 10101, 10124, 10123, 10169, 10170, 10193, 10192
10075, 10101, 10102, 10125, 10124, 10170, 10171, 10194, 10193
10076, 10102, 10103, 10126, 10125, 10171, 10172, 10195, 10194
10077, 10103, 10104, 10127, 10126, 10172, 10173, 10196, 10195
10078, 10104, 10105, 10128, 10127, 10173, 10174, 10197, 10196
10079, 10105, 10106, 10129, 10128, 10174, 10175, 10198, 10197
10080, 10106, 10107, 10130, 10129, 10175, 10176, 10199, 10198
10081, 10107, 10108, 10131, 10130, 10176, 10177, 10200, 10199
10082, 10108, 10109, 10132, 10131, 10177, 10178, 10201, 10200
10083, 10109, 10110, 10133, 10132, 10178, 10179, 10202, 10201
10084, 10110, 10111, 10134, 10133, 10179, 10180, 10203, 10202
10085, 10111, 10112, 10135, 10134, 10180, 10181, 10204, 10203
10086, 10112, 10113, 10136, 10135, 10181, 10182, 10205, 10204
10087, 10113, 10114, 10137, 10136, 10182, 10183, 10206, 10205
10088, 10114, 10115, 10138, 10137, 10183, 10184, 10207, 10206
*Nset, nset=ALL_NODES, generate
10001, 10207, 1
*Elset, elset=TOP_ELEMENTS
10045, 10046, 10047, 10048, 10049, 10050, 10051, 10052, 10053, 10054, 10055, 10056, 10057, 10058, 10059, 10060
10061, 10062, 10063, 10064, 10065, 10066, 10067, 10068, 10069, 10070, 10071, 10072, 10073, 10074, 10075, 10076
10077, 10078, 10079, 10080, 10081, 10082, 10083, 10084, 10085, 10086, 10087, 10088
*Surface, type=ELEMENT, name=CONTACT_FACE
TOP_ELEMENTS, S2
*Solid Section, elset=ALL_ELEMENTS, material=STEEL
,
*End Part
*Assembly, name=ASSEMBLY
*Instance, name=PROJECTILE-1, part=PROJECTILE
*End Instance
*Instance, name=WALL-1, part=WALL
*End Instance
*End Assembly
*Material, name=POLYUREA_RNO
*Density
1120.
*Specific Heat
1500.
*Conductivity
0.19
*Inelastic Heat Fraction
0.9
*Depvar
33,
*User Material, constants=9
2.82e9, 0.286, 0., 0., 0., 0., 0., 2.0e-5
1.0
*Material, name=STEEL
*Density
7850.
*Elastic
210.e9, 0.3
*Surface Interaction, name=HARD_FRICTIONLESS
*Surface Behavior, pressure-overclosure=HARD
*Initial Conditions, type=TEMPERATURE
PROJECTILE-1.ALL_NODES, 300.
*Initial Conditions, type=VELOCITY
PROJECTILE-1.ALL_NODES, 3, -100.
*Boundary
WALL-1.ALL_NODES, 1, 3, 0.
*Step, name=IMPACT, nlgeom=YES
*Dynamic, Explicit
, 2.0e-5
*Bulk Viscosity
0.06, 1.2
*Contact Pair, interaction=HARD_FRICTIONLESS
PROJECTILE-1.IMPACT_FACE, WALL-1.CONTACT_FACE
*Output, field, time interval=1.0e-6
*Node Output
U, V, A, RF, NT
*Element Output, directions=YES
S, LE, SDV, TEMP, ENER
*Output, history, time interval=2.0e-7
*Energy Output
ALLIE, ALLKE, ALLSE, ALLPD, ALLWK, ETOTAL
*Node Output, nset=WALL-1.ALL_NODES
RF3
*End Step
